TITL P2_expF_1_4_expS_1_4_P2_a.res in Pm
REM Old TITL P2(1)-1 in P2(1)
REM SHELXT solution in Pm: R1 0.675, Rweak 0.096, Alpha 0.035
REM <I/s>   0.000 for    0 systematic absences,  Orientation as input
REM Formula found by SHELXT:  C33 N9 O21

CELL  0.71073   7.0400   9.2600  11.5800   90.000   97.780   90.000
ZERR   15.000   0.0014   0.0019   0.0023    0.000    0.030    0.000
LATT -1
SYMM X, -Y, Z
SFAC C H N O
UNIT 15 15 15 15
L.S. 10
BOND
LIST 6
FMAP 2
PLAN 20
O001  4  0.90257  0.50000  0.29058 10.50000  0.05155  10.47
O002  4  0.67858  1.00000  0.43710 10.50000  0.02659  10.27
O003  4  0.46026  0.73122  0.27415 11.00000  0.00090  10.21
O004  4  0.06801  0.60097  0.76521 11.00000  0.00010   9.74
O005  4  0.57787  1.00000  0.75717 10.50000  0.01616   9.29
O006  4  0.63325  1.00000  0.97036 10.50000  0.00010   8.89
O007  4  0.60103  0.65307  0.57072 11.00000  0.04432   8.52
O008  4  0.28658  0.61165  0.46249 11.00000  0.00230   7.92
O009  4  0.19963  0.82083  0.20544 11.00000  0.05981   7.81
O00A  4  0.46346  0.61684  0.40931 11.00000  0.00010   7.59
O00B  4  0.06721  0.84013  0.66556 11.00000  0.00964   7.55
N00C  3  0.29440  1.00000  0.19534 10.50000  0.00010   7.38
O00D  4  0.91654  0.30791  0.18391 11.00000  0.00010   7.28
N00E  3  0.29367  0.50000  0.78451 10.50000  0.00010   7.25
N00F  3  0.28062  0.61997  0.69312 11.00000  0.00010   7.11
O00G  4  0.74173  0.50000  0.09228 10.50000  0.05104   7.05
C00H  1  0.67923  0.50000  0.16864 10.50000  0.01481   6.81
N00I  3  0.71860  1.00000  0.67509 10.50000  0.03386   6.76
N00J  3  0.46119  0.64261  0.78445 11.00000  0.01449   6.59
N00K  3  0.82049  0.50000  0.45729 10.50000  0.00010   6.57
C00L  1  0.90366  0.50000  0.07827 10.50000  0.00010   6.53
C00M  1  0.48181  1.00000  0.24565 10.50000  0.00153   6.36
C00N  1  0.47628  0.50000  0.14867 10.50000  0.00010   6.14
C00O  1  0.63115  0.50000  0.38878 10.50000  0.00010   6.09
C00P  1  0.66042  0.30195  0.18233 11.00000  0.00998   5.85
C00Q  1  0.56204  0.67142  0.69138 11.00000  0.00010   5.73
C00R  1  1.14572  0.60330  0.05422 11.00000  0.04728   5.71
C00S  1  0.44212  1.00000  0.83816 10.50000  0.00010   5.53
C00T  1  0.25532  0.50000  0.38549 10.50000  0.00010   5.50
C00U  1  0.52160  0.50000  0.62682 10.50000  0.14661   5.13
C00V  1 -0.10909  0.59102  0.75550 11.00000  0.00010   5.08
C00W  1  0.46874  0.86387  0.35683 11.00000  0.00390   4.95
C00X  1  0.42108  1.16069  0.11832 11.00000  0.01221   4.69
C00Y  1  0.51241  0.75226  0.80841 11.00000  0.03718   4.51
C00Z  1 -0.14572  0.50000  0.88088 10.50000  0.00010   4.16
C010  1  0.05450  0.82871  0.10295 11.00000  0.00010   4.04
C011  1  0.29134  1.00000  0.02964 10.50000  0.00010   3.87
C012  1 -0.10359  0.82492  0.79647 11.00000  0.01013   3.80
C013  1  0.62627  0.61628  0.32880 11.00000  0.02179   3.30
N014  3  0.22915  1.00000  0.14133 10.50000  0.04735   3.16
C015  1  0.41064  0.50000  0.27574 10.50000  0.02152   3.15
C016  1  0.64338  0.71305  0.88165 11.00000  0.06014   3.09
HKLF 4
END
