TITL P2_expF_1_5_expS_1_5_P2_a.res in Pm
REM Old TITL P2(1)-1 in P2(1)
REM SHELXT solution in Pm: R1 0.597, Rweak 0.176, Alpha 0.017
REM <I/s>   0.000 for    0 systematic absences,  Orientation as input
REM Formula found by SHELXT:  C30 N16 O13

CELL  0.71073   7.0400   9.2600  11.5800   90.000   97.780   90.000
ZERR   15.000   0.0014   0.0019   0.0023    0.000    0.030    0.000
LATT -1
SYMM X, -Y, Z
SFAC C H N O
UNIT 15 15 15 15
L.S. 10
BOND
LIST 6
FMAP 2
PLAN 20
O001  4  0.25632  1.00000  0.82339 10.50000  0.01901   8.95
O002  4  0.42126  1.00000  0.21533 10.50000  0.04394   8.84
O003  4  0.97660  0.50000  0.28349 10.50000  0.05912   8.75
N004  3  1.11884  1.00000  0.44522 10.50000  0.00010   8.73
O005  4  1.15457  0.50000  0.71175 10.50000  0.00010   8.44
O006  4  0.12169  1.00000  0.06637 10.50000  0.01733   8.39
O007  4  0.51981  0.76285  1.02740 11.00000  0.01159   8.38
N008  3  0.81427  0.50000  0.26627 10.50000  0.04537   8.27
O009  4  1.19948  0.50000  0.19892 10.50000  0.01740   8.13
C00A  1  0.33902  0.83945  0.15505 11.00000  0.00010   8.03
N00B  3  1.34974  1.00000  0.54193 10.50000  0.00010   7.37
O00C  4  1.50946  0.50000 -0.02740 10.50000  0.00788   7.30
N00D  3  0.69541  0.19939  0.20233 11.00000  0.01352   7.11
N00E  3  0.96016  0.50000  0.94353 10.50000  0.00010   6.84
N00F  3 -0.07032  1.00000  0.01499 10.50000  0.05435   6.79
N00G  3  0.68485  1.00000  0.45161 10.50000  0.00010   6.74
N00H  3  0.34085  0.91370  0.72449 11.00000  0.03081   6.73
C00I  1  0.56659  0.77386  0.91056 11.00000  0.01167   6.64
O00J  4  0.64459  0.66589  0.58994 11.00000  0.04961   6.63
N00K  3  0.59469  1.00000  0.64003 10.50000  0.10072   6.60
N00L  3  0.76222  0.67912  0.95999 11.00000  0.00417   6.58
C00M  1  0.54088  0.73035  0.54049 11.00000  0.04985   6.41
C00N  1 -0.33480  1.00000 -0.02298 10.50000  0.00010   6.33
O00O  4  0.17292  0.80370  0.13504 11.00000  0.01313   6.33
C00P  1  0.55021  0.82784  0.63817 11.00000  0.00244   6.27
C00Q  1  0.60908  0.50000  0.34669 10.50000  0.02821   6.13
C00R  1  1.35009  0.50000  0.08551 10.50000  0.00356   5.98
C00S  1  0.85040  1.00000  0.44276 10.50000  0.00010   5.95
C00T  1  0.38231  0.72710  0.95557 11.00000  0.03296   5.95
C00U  1  0.68858  0.87588  0.56819 11.00000  0.01018   5.91
C00V  1  1.16334  1.00000  0.53761 10.50000  0.00568   5.85
N00W  3 -0.50946  1.00000 -0.00081 10.50000  0.02262   5.84
C00X  1 -0.02731  1.00000  0.75165 10.50000  0.03063   5.79
C00Y  1  0.48467  0.50000  0.72797 10.50000  0.00010   5.63
C00Z  1  0.77974  0.61253  0.88170 11.00000  0.05261   5.51
C010  1  0.92391  0.50000  0.61132 10.50000  0.00010   5.25
C011  1  0.53751  1.00000  0.31450 10.50000  0.04136   4.98
C012  1  0.72773  0.50000  0.48573 10.50000  0.00010   4.92
C013  1  0.43887  0.65850  0.82976 11.00000  0.12311   4.85
C014  1  0.36866  1.00000  0.36250 10.50000  0.04380   4.71
N015  3  0.72985  0.50000  0.82926 10.50000  0.00500   4.49
C016  1  0.85003  0.50000  0.78667 10.50000  0.00699   4.38
C017  1  0.67325  0.41079  0.16423 11.00000  0.00628   4.18
N018  3  1.06106  0.50000  0.79652 10.50000  0.09860   4.14
HKLF 4
END
