TITL P2_expF_1_2_expS_1_5_P2_b.res in Pm
REM Old TITL P2(1)-1 in P2(1)
REM SHELXT solution in Pm: R1 0.679, Rweak 0.303, Alpha 0.214
REM <I/s>   0.000 for    0 systematic absences,  Orientation as input
REM Formula found by SHELXT:  C58 N17 O14 I

CELL  0.71073   7.0400   9.2600  11.5800   90.000   97.780   90.000
ZERR   15.000   0.0014   0.0019   0.0023    0.000    0.030    0.000
LATT -1
SYMM X, -Y, Z
SFAC C H N O I
UNIT 15 15 15 15 0
L.S. 10
BOND
LIST 6
FMAP 2
PLAN 20
I001  5  1.22961  0.50000  0.65099 10.50000  0.09856  56.30
N002  3  0.26461  0.50000  0.45470 10.50000  0.05491  14.90
O003  4  0.63999  0.50000  0.16072 10.50000  0.04669  14.61
N004  3 -0.04823  0.50000  0.04725 10.50000  0.00746  13.52
N005  3  0.87880  0.50000  0.71477 10.50000  0.00010  11.37
O006  4  0.64941  0.18784  0.16066 11.00000  0.03245  11.30
O007  4 -0.14187  0.50000  0.40023 10.50000  0.01338  11.24
O008  4 -0.09406  0.11353  0.66167 11.00000  0.01515  11.20
O009  4  0.51328  0.35774  0.34923 11.00000  0.00651  10.85
N00A  3  0.07885  0.40173 -0.01774 11.00000  0.07167  10.67
O00B  4  0.79224  0.00000  1.04278 10.50000  0.02052  10.26
N00C  3  0.55058  0.00000  0.89908 10.50000  0.00594   9.98
N00D  3  0.56074  0.00000  0.75150 10.50000  0.00010   9.42
O00E  4  0.45136  0.19985  0.66206 11.00000  0.15046   9.18
O00F  4  0.47787  0.50000  0.54669 10.50000  0.19637   8.61
N00G  3  0.19897  0.50000  0.09354 10.50000  0.00010   8.61
O00H  4  0.23007  0.12659  0.13668 11.00000  0.03734   8.03
N00I  3 -0.01857  0.37246  0.31304 11.00000  0.01423   7.81
N00J  3  0.14309  0.36454  0.13607 11.00000  0.00010   7.80
N00K  3 -0.06493  0.31312  0.18365 11.00000  0.01464   7.31
C00L  1  0.82356  0.17602  0.25177 11.00000  0.00010   6.93
N00M  3  0.59220  0.29747  0.22536 11.00000  0.00010   6.56
C00N  1  0.75216  0.08579  0.31459 11.00000  0.00010   6.42
C00O  1  0.51489  0.15482  0.52263 11.00000  0.00010   6.33
C00P  1  0.11141  0.00000  0.59467 11.00000  0.05006   6.32
N00Q  3  0.04785  0.50000  0.48059 10.50000  0.02062   6.29
C00R  1 -0.26266  0.36855  0.02940 11.00000  0.03000   6.00
C00S  1  0.73000  0.63529  0.68285 11.00000  0.03025   5.75
C00T  1  0.24345  0.24468  0.07912 11.00000  0.00010   5.70
C00U  1 -0.02641  0.24677  0.54428 11.00000  0.00079   5.61
C00V  1  0.37904  0.43539 -0.04278 11.00000  0.08842   5.61
C00W  1  0.24269  0.18478  0.54344 11.00000  0.02250   5.41
C00X  1  0.66256  0.00000  0.70891 10.50000  0.00010   5.31
C00Y  1  0.02407  0.50000  0.34465 11.00000  0.03034   5.23
C00Z  1  0.26165  0.29521  0.32687 11.00000  0.00010   5.12
C010  1  0.43861  0.00000  0.65483 10.50000  0.00010   5.06
C011  1  0.81152  0.56887  0.60038 11.00000  0.03361   4.91
C012  1  1.03598  0.70532  0.72730 11.00000  0.01938   4.83
C013  1  0.50282  0.11674  0.78173 11.00000  0.01073   4.70
C014  1  0.35448  0.00000  0.26804 10.50000  0.00127   4.56
C015  1  0.40795  0.32594  0.16187 11.00000  0.01364   4.50
C016  1  0.77917  0.00000  0.92814 10.50000  0.00159   4.44
C017  1  1.05141  0.06988  0.24053 11.00000  0.12888   4.43
C018  1  0.61506  0.58939  0.49626 11.00000  0.00010   4.41
C019  1 -0.08876  0.50000  0.27547 10.50000  0.00010   4.32
C01A  1  0.86366  0.61756  0.76249 11.00000  0.05043   4.26
C01B  1  1.26266  0.68808  0.81702 11.00000  0.00010   4.24
C01C  1  1.14641  0.58547  0.75603 11.00000  0.00010   4.23
C01D  1  0.70380  0.61286  0.85078 11.00000  0.02900   4.04
C01E  1  0.42654  0.29777  0.00765 11.00000  0.00010   4.02
C01F  1  1.05671  0.81574  0.83696 11.00000  0.00010   4.02
C01G  1  0.26912  0.19408  0.40437 11.00000  0.08352   4.00
C01H  1  0.08073  0.11878  0.49131 11.00000  0.03314   3.97
C01I  1  0.81267  0.00000  0.21365 10.50000  0.00376   3.96
HKLF 4
END
