TITL P2_expF_1_1_expS_0_5_P2_a.res in Pm
REM Old TITL P2(1)-1 in P2(1)
REM SHELXT solution in Pm: R1 0.348, Rweak 0.736, Alpha 0.283
REM <I/s>   0.000 for    0 systematic absences,  Orientation as input
REM Formula found by SHELXT:  C23 N4 O10

CELL  0.71073   7.0400   9.2600  11.5800   90.000   97.780   90.000
ZERR   15.000   0.0014   0.0019   0.0023    0.000    0.030    0.000
LATT -1
SYMM X, -Y, Z
SFAC C H N O
UNIT 15 15 15 15
L.S. 10
BOND
LIST 6
FMAP 2
PLAN 20
N001  3  0.47125  0.50000 -0.00921 10.50000  0.00010  11.41
O002  4  0.49711  0.50000 -0.11973 10.50000  0.00010  10.08
O003  4  0.72146  1.00000  1.01722 10.50000  0.00010   9.88
O004  4  0.16648  0.50000  0.11511 10.50000  0.02360   9.82
C005  1  0.40413  0.50000  0.39968 10.50000  0.00010   9.78
O006  4  0.92916  1.00000  0.90137 10.50000  0.06144   9.41
N007  3  0.23163  0.50000  0.39126 10.50000  0.00010   8.73
O008  4  0.65709  0.50000 -0.03471 10.50000  0.00010   8.02
O009  4  0.28605  0.50000  0.24716 10.50000  0.01991   7.90
O00A  4  0.50302  1.00000  0.89081 10.50000  0.00010   7.85
O00B  4  0.57861  1.00000  1.23508 10.50000  0.00010   7.76
N00C  3  0.37593  0.50000  0.08487 10.50000  0.01709   7.12
C00D  1  0.24348  1.00000  1.07414 10.50000  0.00479   6.42
C00E  1  0.41685  1.00000  1.18982 10.50000  0.00010   5.86
C00F  1  0.68640  0.33629 -0.11679 11.00000  0.03043   5.70
C00G  1  0.19761  0.50000 -0.14824 10.50000  0.00010   5.40
C00H  1  0.53605  0.61531  0.17627 11.00000  0.02024   5.35
C00I  1  0.69677  0.50000  0.39263 10.50000  0.00010   5.14
C00J  1  0.02856  0.50000 -0.08902 10.50000  0.00010   5.14
C00K  1  0.86917  1.00000  0.68034 10.50000  0.00010   5.08
C00L  1 -0.16005  0.50000 -0.20467 10.50000  0.10267   4.89
C00M  1  0.70937  1.00000  1.14338 10.50000  0.00010   4.62
N00N  3  0.83373  1.00000  0.44561 10.50000  0.00010   4.29
O00O  4  0.26753  1.00000  0.97122 10.50000  0.00010   4.14
C00P  1  0.92239  0.61353  0.39429 11.00000  0.02517   3.80
C00Q  1  0.93991  0.66041  0.55040 11.00000  0.08428   3.77
C00R  1  0.27121  1.00000  0.78763 10.50000  0.00202   3.55
O00S  4  0.15189  0.50000 -0.23508 10.50000  0.01227   3.52
C00T  1  0.11452  0.42247 -0.11187 11.00000  0.03742   3.28
C00U  1  1.16005  0.88179  0.35357 11.00000  0.03952   3.20
C00V  1  0.49828  1.00000  0.84727 10.50000  0.00010   3.15
HKLF 4
END
