TITL P2_expF_0_7_expS_1_1_P2_a.res in Pm
REM Old TITL P2(1)-1 in P2(1)
REM SHELXT solution in Pm: R1 0.301, Rweak 0.393, Alpha 0.085
REM <I/s>   0.000 for    0 systematic absences,  Orientation as input
REM Formula found by SHELXT:  C29 N17 O27 I

CELL  0.71073   7.0400   9.2600  11.5800   90.000   97.780   90.000
ZERR   15.000   0.0014   0.0019   0.0023    0.000    0.030    0.000
LATT -1
SYMM X, -Y, Z
SFAC C H N O I
UNIT 15 15 15 15 0
L.S. 10
BOND
LIST 6
FMAP 2
PLAN 20
I001  5  0.18262  0.50000  0.76791 10.50000  0.00960  72.00
O002  4  0.07264  0.60588  0.86290 11.00000  0.10913  19.45
O003  4  1.04698  0.50000  0.26913 10.50000  0.03952  18.13
O004  4 -0.06850  0.00000  0.64777 10.50000  0.06400  17.75
O005  4  0.02564  0.12698  0.76740 11.00000  0.13075  17.29
O006  4 -0.05291  0.50000  0.87805 10.50000  0.01930  16.03
O007  4  0.51916  0.50000 -0.01670 10.50000  0.03785  15.09
N008  3  0.28256  0.00000  0.81228 10.50000  0.06788  14.58
O009  4  0.44729  0.34716  0.09349 11.00000  0.03987  14.53
O00A  4  0.03966  0.75689  1.08342 11.00000  0.09646  13.73
N00B  3  0.23999  0.50000  0.63552 10.50000  0.00010  13.56
O00C  4  1.26653  0.66104  0.26878 11.00000  0.03360  11.99
O00D  4  0.49852  0.50000 -0.08342 11.00000  0.13009  10.80
N00E  3 -0.26653  0.50000  0.68468 10.50000  0.02815  10.05
O00F  4  0.60631 -0.24315  0.78508 11.00000  0.04520   9.88
O00G  4  0.05200  0.65807  0.94456 11.00000  0.04933   9.60
N00H  3  0.49057  0.50000  0.59507 10.50000  0.08049   9.19
O00I  4  0.79604  0.50000  0.27328 10.50000  0.02434   9.18
N00J  3  0.50886  0.50000  0.25957 10.50000  0.14355   8.76
O00K  4  0.06937 -0.04342  0.97018 11.00000  0.07246   8.67
O00L  4  0.30273  1.00000  0.25883 10.50000  0.05918   8.66
N00M  3 -0.22265  0.00000  0.59809 10.50000  0.00010   8.56
N00N  3  0.29473  0.50000  0.58416 10.50000  0.01086   8.35
O00O  4  0.62808  0.65869  0.29772 11.00000  0.07985   8.05
N00P  3 -0.14167  0.37126  0.73140 11.00000  0.07089   7.95
N00Q  3  0.53157 -0.09692  0.75335 11.00000  0.02404   7.82
N00R  3  0.58564  0.50000  0.47469 10.50000  0.09138   7.48
N00S  3  0.71822  1.00000  0.26865 10.50000  0.00424   6.83
O00T  4  0.54069  0.50000  0.37585 10.50000  0.03644   6.62
N00U  3 -0.00280  0.24390  0.59583 11.00000  0.05263   6.62
N00V  3 -0.08541  0.50000  1.05385 11.00000  0.08612   6.60
C00W  1 -0.05733  0.50000  0.82586 10.50000  0.00437   6.48
C00X  1  0.45618  0.00000  0.81940 11.00000  0.08652   5.99
C00Y  1  0.71082  1.00000  0.22547 10.50000  0.00010   5.93
C00Z  1  0.43554  0.31291  0.56311 11.00000  0.06944   5.75
C010  1  0.33856  0.50000  0.67361 10.50000  0.05972   5.69
C011  1  0.04752  0.50000  0.48912 10.50000  0.02602   5.65
C012  1 -0.00455  0.35091  0.66614 11.00000  0.05313   5.60
C013  1  0.49538  0.50000  0.43123 10.50000  0.00010   5.60
C014  1  0.21157  0.00000  0.58598 10.50000  0.00784   5.49
C015  1 -0.21502  0.00000  0.65189 11.00000  0.02978   5.25
C016  1  0.32730  0.42884  0.44212 11.00000  0.04457   5.15
C017  1  0.83427  0.84214  0.34751 11.00000  0.03663   5.13
C018  1  0.38064  0.50000  0.69714 10.50000  0.00010   4.93
C019  1  0.25673  0.00000  0.64053 10.50000  0.05281   4.92
C01A  1  0.05594  0.50000  0.44092 10.50000  0.00010   4.91
C01B  1  0.56655  0.00000  0.80830 10.50000  0.03115   4.90
C01C  1  0.11419  0.25225  0.58199 11.00000  0.02746   4.75
C01D  1 -0.00949  0.42669  0.56519 11.00000  0.04407   4.75
C01E  1  0.74935  1.00000  0.17918 10.50000  0.02818   4.73
C01F  1  0.20971  0.00000  0.88319 10.50000  0.00927   4.73
C01G  1  0.16080  0.50000  1.04260 10.50000  0.17297   4.69
HKLF 4
END
