TITL P2_expF_1_3_expS_0_6_P2_a.res in Pm
REM Old TITL P2(1)-1 in P2(1)
REM SHELXT solution in Pm: R1 0.301, Rweak 0.995, Alpha 0.173
REM <I/s>   0.000 for    0 systematic absences,  Orientation as input
REM Formula found by SHELXT:  C40 N20 O10 Br

CELL  0.71073   7.0400   9.2600  11.5800   90.000   97.780   90.000
ZERR   15.000   0.0014   0.0019   0.0023    0.000    0.030    0.000
LATT -1
SYMM X, -Y, Z
SFAC C H N O BR
UNIT 15 15 15 15 0
L.S. 10
BOND
LIST 6
FMAP 2
PLAN 20
BR01  5  0.63565  1.00000 -0.04506 10.50000  0.01047  43.46
O002  4  0.01499  0.00000  0.45156 10.50000  0.02473  17.16
O003  4 -0.18959  0.00000  0.44963 10.50000  0.02780  14.14
O004  4 -0.21872  0.00000  0.58718 10.50000  0.05647  14.12
N005  3  0.29315  0.00000  0.50627 10.50000  0.02699  13.31
N006  3  0.22952  0.00000  0.98523 10.50000  0.14012  12.32
O007  4  0.55131  0.17490  0.45578 11.00000  0.05608  11.92
O008  4  0.42427  0.50000  0.63765 10.50000  0.04126  11.63
N009  3  0.48439  0.00000  0.40601 10.50000  0.06817  11.18
N00A  3  0.70242  0.50000  0.52653 10.50000  0.03298  11.03
N00B  3  0.26829  0.00000  0.36171 10.50000  0.07761  10.95
N00C  3  0.34056  0.50000 -0.12635 10.50000  0.08207  10.13
N00D  3  0.68436  0.41161  0.46427 11.00000  0.05350  10.12
O00E  4 -0.15026  0.00000  0.30651 10.50000  0.22084   9.44
O00F  4  1.21872  0.50000  0.10181 10.50000  0.17025   9.22
N00G  3  0.61672  0.50000  0.56914 10.50000  0.05474   8.97
N00H  3  0.86786  0.50000  0.46957 10.50000  0.10434   8.55
N00I  3  0.89808  0.50000 -0.03123 10.50000  0.04864   8.14
N00J  3  0.78588  0.50000  0.31752 10.50000  0.00711   7.68
O00K  4  0.45343 -0.10432  0.27368 11.00000  0.07067   7.66
N00L  3  0.23567  0.00000  0.66319 10.50000  0.11629   7.57
N00M  3  0.97715  0.40424 -0.06444 11.00000  0.04440   7.39
C00N  1  0.31134  0.00000  0.38213 10.50000  0.05888   7.19
N00O  3  0.28923  0.06398  0.44365 11.00000  0.05505   7.12
N00P  3  0.49981  0.50000  0.30302 10.50000  0.07692   7.09
N00Q  3  0.63041  0.23107  0.38068 11.00000  0.14652   6.70
C00R  1  0.70607  0.50000  0.09624 10.50000  0.14672   6.58
C00S  1  0.85605  0.50000 -0.12026 10.50000  0.06513   6.24
C00T  1  0.78593  0.50000  0.42717 10.50000  0.00010   5.80
C00U  1  0.51827  0.50000  0.44144 10.50000  0.00294   5.61
C00V  1  0.13141  0.14738  0.91949 11.00000  0.06197   5.56
C00W  1  1.05119  0.50000 -0.01722 10.50000  0.06294   5.56
C00X  1  0.24248  0.14760  0.76950 11.00000  0.12492   5.16
C00Y  1  0.52472  0.50000 -0.02613 10.50000  0.00010   4.94
C00Z  1  0.52558  0.00000  0.26950 10.50000  0.05177   4.73
C010  1  0.89534  0.50000  0.19873 10.50000  0.05074   4.56
C011  1  0.22338  0.00000  0.57442 10.50000  0.06716   4.20
C012  1  0.31708  0.00000  1.12635 10.50000  0.07233   4.11
C013  1  0.14928  0.16999  1.04953 11.00000  0.06645   4.03
C014  1  1.13714  0.50000  0.52309 10.50000  0.09424   3.94
C015  1  0.74166  0.22615  0.63669 11.00000  0.06663   3.82
C016  1 -0.07522  0.11658  0.97631 11.00000  0.06861   3.69
C017  1  0.48272  0.87280  0.02505 11.00000  0.06173   3.69
C018  1  0.78340  0.42722  0.02612 11.00000  0.05852   3.68
C019  1  0.67631  0.74004  0.12541 11.00000  0.05897   3.67
C01A  1  0.46054  0.37028 -0.05451 11.00000  0.07292   3.66
C01B  1  0.78531  0.68516  0.26894 11.00000  0.09252   3.62
C01C  1  0.78285  0.50000  0.37903 11.00000  0.02666   3.54
C01D  1  1.09433  0.50000  0.43702 10.50000  0.05963   3.49
C01E  1  0.76502  0.17828  0.77132 11.00000  0.08220   3.45
C01F  1  0.52642  0.50000 -0.07746 10.50000  0.00010   3.30
C01G  1  0.54534  0.20687  0.77502 11.00000  0.06567   3.29
HKLF 4
END
