TITL P2_expF_1_5_expS_0_7_P2_a.res in Pm
REM Old TITL P2(1)-1 in P2(1)
REM SHELXT solution in Pm: R1 0.472, Rweak 0.760, Alpha 0.210
REM <I/s>   0.000 for    0 systematic absences,  Orientation as input
REM Formula found by SHELXT:  C25 N5 O10

CELL  0.71073   7.0400   9.2600  11.5800   90.000   97.780   90.000
ZERR   15.000   0.0014   0.0019   0.0023    0.000    0.030    0.000
LATT -1
SYMM X, -Y, Z
SFAC C H N O
UNIT 15 15 15 15
L.S. 10
BOND
LIST 6
FMAP 2
PLAN 20
O001  4  0.65347  1.00000  0.75510 10.50000  0.03899  11.70
O002  4  0.63669  0.50000  0.57455 10.50000  0.00645   9.69
O003  4  0.11817  0.50000  0.21026 10.50000  0.02677   8.95
O004  4  1.34917  0.50000  0.74338 10.50000  0.04879   8.83
C005  1  1.06255  1.00000  0.26395 10.50000  0.00010   8.76
O006  4  0.40045  0.50000  0.42650 10.50000  0.03947   8.74
O007  4  0.74638  1.00000  0.63258 10.50000  0.02429   8.63
O008  4  0.61633  1.00000  0.55398 10.50000  0.03204   7.97
O009  4 -0.35314  0.60728  0.26225 11.00000  0.03257   7.76
N00A  3  0.88107  1.00000  0.23542 10.50000  0.00010   7.69
N00B  3  0.81088  0.50000  0.73478 10.50000  0.05509   7.44
N00C  3 -0.28152  0.50000  0.21470 10.50000  0.00010   7.01
C00D  1  1.48178  0.66924  0.75318 11.00000  0.03781   5.55
C00E  1  1.19508  1.00000  0.21961 10.50000  0.05145   5.50
C00F  1  1.10114  0.94752  0.13924 11.00000  0.02959   5.43
O00G  4 -0.06833  0.50000  0.18797 10.50000  0.31761   5.23
C00H  1  1.10639  0.50000  0.74277 10.50000  0.08119   5.11
C00I  1  0.97220  1.00000  0.81893 10.50000  0.01008   4.57
C00J  1  0.73279  1.00000  0.93550 10.50000  0.00083   4.33
C00K  1  0.77151  0.83749  0.43481 11.00000  0.06723   4.23
C00L  1  1.52733  1.00000  0.20274 10.50000  0.10673   4.01
C00M  1  0.39014  0.50000  0.33485 10.50000  0.14800   3.58
C00N  1 -0.52733  0.50000  0.10004 10.50000  0.02053   3.50
C00O  1  0.17654  0.33743  0.06450 11.00000  0.01892   3.46
C00P  1  0.95194  0.84941  0.74152 11.00000  0.03768   3.46
C00Q  1  0.98841  0.68059  0.83227 11.00000  0.08628   3.32
N00R  3  0.95302  0.95649  0.32753 11.00000  0.08132   3.20
C00S  1  0.35374  0.27607  0.24792 11.00000  0.01492   3.08
C00T  1  1.39533  0.67250  0.88908 11.00000  0.05036   3.05
C00U  1  0.67474  0.50000  0.80626 10.50000  0.06749   3.03
HKLF 4
END
