TITL P2_expF_1_5_expS_1_4_P2_a.res in Pm
REM Old TITL P2(1)-1 in P2(1)
REM SHELXT solution in Pm: R1 0.604, Rweak 0.177, Alpha 0.031
REM <I/s>   0.000 for    0 systematic absences,  Orientation as input
REM Formula found by SHELXT:  C45 N3 O8

CELL  0.71073   7.0400   9.2600  11.5800   90.000   97.780   90.000
ZERR   15.000   0.0014   0.0019   0.0023    0.000    0.030    0.000
LATT -1
SYMM X, -Y, Z
SFAC C H N O
UNIT 15 15 15 15
L.S. 10
BOND
LIST 6
FMAP 2
PLAN 20
O001  4  0.17276  0.00000  0.28641 10.50000  0.00851   8.83
O002  4 -0.11432  0.00000  0.95613 10.50000  0.00010   8.73
O003  4  0.22268  0.00000  0.61995 10.50000  0.02094   8.32
O004  4  0.46022  0.28922  0.80739 11.00000  0.05122   8.17
C005  1  0.80194  0.50000  0.35804 10.50000  0.07305   8.10
O006  4  1.11523  0.50000  0.49862 10.50000  0.00995   7.39
N007  3  0.92924  0.50000  0.56768 10.50000  0.11007   7.18
N008  3  0.20436  0.11194  0.87906 11.00000  0.01701   6.75
C009  1  0.66981  0.50000 -0.10723 10.50000  0.04165   6.48
C00A  1  0.30250  0.00000  0.72916 10.50000  0.00292   6.46
C00B  1  0.10653  0.00000  0.67966 10.50000  0.00010   6.30
C00C  1  0.37560  0.30100  0.44748 11.00000  0.05383   5.89
C00D  1  0.31426  0.37770  0.56424 11.00000  0.04160   5.83
C00E  1  0.48367  0.35316  0.69723 11.00000  0.00010   5.81
C00F  1  0.19017  0.23471  0.79117 11.00000  0.02135   5.74
O00G  4  1.00197  0.50000  0.05496 10.50000  0.03193   5.70
C00H  1  0.12837  0.30232  0.56286 11.00000  0.00192   5.54
C00I  1  0.10507  0.00000  0.84016 10.50000  0.03013   5.48
C00J  1  0.77913  0.33093  0.41423 11.00000  0.02789   5.13
C00K  1  0.10556  0.14554  0.96653 11.00000  0.00728   5.10
C00L  1  1.14857  0.50000  0.26291 10.50000  0.05538   5.07
C00M  1  0.06079  0.00000  0.97280 10.50000  0.00888   5.06
C00N  1  0.18878  0.50000 -0.05629 10.50000  0.10238   5.00
C00O  1  0.82814  0.00000  0.36533 10.50000  0.03255   4.96
C00P  1  0.37703  0.00000  0.30324 10.50000  0.00010   4.95
C00Q  1 -0.14857  0.00000  1.10723 10.50000  0.01166   4.85
C00R  1 -0.06306  0.00000  0.64316 10.50000  0.01660   4.82
C00S  1  0.32247  0.36208  0.04612 11.00000  0.00010   4.74
C00T  1  0.42679  0.22520  0.37380 11.00000  0.01791   4.50
C00U  1  0.73016  0.19333  0.46755 11.00000  0.02383   4.37
C00V  1  0.97701  0.15260  0.48705 11.00000  0.03654   4.28
C00W  1  0.68090  0.00000  0.45781 10.50000  0.00063   4.27
C00X  1  0.08079  0.50000 -0.10190 10.50000  0.07847   3.99
C00Y  1  0.82474  0.50000  0.04122 10.50000  0.04693   3.93
C00Z  1  0.45877  0.50000 -0.02620 10.50000  0.05321   3.71
C010  1  0.76256  0.36733  0.70345 11.00000  0.04784   3.62
O011  4  0.94722  0.50000  0.36786 10.50000  0.04683   3.46
C012  1  0.27667  0.50000  0.69794 10.50000  0.14929   3.40
C013  1  0.79063  0.33820  0.55500 11.00000  0.03516   3.07
C014  1  0.59172  0.21345  0.33963 11.00000  0.03681   3.06
HKLF 4
END
