TITL P2_expF_1_5_expS_1_3_P2_a.res in Pm
REM Old TITL P2(1)-1 in P2(1)
REM SHELXT solution in Pm: R1 0.696, Rweak 0.345, Alpha 0.054
REM <I/s>   0.000 for    0 systematic absences,  Orientation as input
REM Formula found by SHELXT:  C37 N10 O10

CELL  0.71073   7.0400   9.2600  11.5800   90.000   97.780   90.000
ZERR   15.000   0.0014   0.0019   0.0023    0.000    0.030    0.000
LATT -1
SYMM X, -Y, Z
SFAC C H N O
UNIT 15 15 15 15
L.S. 10
BOND
LIST 6
FMAP 2
PLAN 20
O001  4  0.02407  0.50000  0.82090 10.50000  0.02905   8.95
N002  3  0.35198  0.59409  0.77501 11.00000  0.00932   8.62
N003  3  0.20347  0.50000  0.87246 10.50000  0.00010   8.26
O004  4  0.67478  0.00000  0.72461 10.50000  0.00985   7.59
C005  1  0.33257  0.50000  0.21924 10.50000  0.00010   7.47
O006  4  0.90584  0.23715  0.66870 11.00000  0.02730   7.39
N007  3  0.52386  0.50000  0.26866 10.50000  0.00874   7.34
N008  3  0.48485  0.50000  0.69426 10.50000  0.00010   7.00
N009  3  0.37556  0.50000  0.08313 10.50000  0.06156   6.78
N00A  3  0.07903  0.90545  0.94900 11.00000  0.01249   6.67
N00B  3  0.13657  0.39390  0.34936 11.00000  0.05588   6.65
C00C  1  0.23894  0.00000  0.36688 10.50000  0.00119   6.62
C00D  1  0.02557  0.70122  0.87728 11.00000  0.00872   6.41
C00E  1  0.88227  0.00000  0.61223 10.50000  0.00010   6.37
C00F  1  0.28676  0.50000  0.69870 10.50000  0.00010   6.25
C00G  1  0.59451 -0.14215  0.39189 11.00000  0.00650   6.08
C00H  1  0.10822  0.50000  0.76958 10.50000  0.00010   5.84
C00I  1  0.36334  0.34504  0.27011 11.00000  0.00010   5.80
C00J  1  0.18317  0.39158  0.55882 11.00000  0.00010   5.77
C00K  1  0.37320  0.00000  0.34304 10.50000  0.06058   5.71
C00L  1  0.26619  0.50000  0.74898 10.50000  0.00010   5.63
C00M  1 -0.31836  0.00000  0.15899 10.50000  0.00010   5.51
C00N  1  0.14473  0.50000  0.45356 10.50000  0.00977   5.46
C00O  1  0.12830  0.50000  0.08126 10.50000  0.04687   5.29
O00P  4 -0.08083  0.16319  0.26124 11.00000  0.04087   5.14
O00Q  4  1.03705  0.00000  0.66993 10.50000  0.00771   5.02
C00R  1  1.31836  0.00000  0.80559 10.50000  0.04242   4.89
C00S  1  0.67214  0.29766  0.73970 11.00000  0.01543   4.87
C00T  1 -0.05314  0.00000  0.16739 10.50000  0.08762   4.83
C00U  1  0.48156  0.00000  0.49096 10.50000  0.07530   4.79
C00V  1  0.67976  0.50000  0.36733 10.50000  0.00010   4.50
O00W  4  0.62797  0.33271  0.87310 11.00000  0.26698   4.21
O00X  4  0.13097  0.00000  0.45555 10.50000  0.00089   4.20
C00Y  1 -0.00204  0.50000  0.22796 10.50000  0.00010   4.14
C00Z  1  0.66896  0.00000  0.86814 10.50000  0.00590   4.04
C010  1  0.52468  0.40152  0.60449 11.00000  0.00010   3.94
C011  1  0.95287  0.00000  0.75904 10.50000  0.01689   3.94
C012  1  0.33744  0.00000  0.04830 10.50000  0.00010   3.94
C013  1  0.34251  0.78673  0.95170 11.00000  0.02158   3.91
C014  1  0.44557  0.15408  0.18015 11.00000  0.02401   3.53
C015  1  0.78951  0.00000  0.68058 10.50000  0.01776   3.49
C016  1  0.08080  0.18897  0.32373 11.00000  0.02113   3.20
HKLF 4
END
