TITL P2_expF_0_5_expS_0_7_P2_a.res in Pm
REM Old TITL P2(1)-1 in P2(1)
REM SHELXT solution in Pm: R1 0.166, Rweak 0.588, Alpha 0.144
REM <I/s>   0.000 for    0 systematic absences,  Orientation as input
REM Formula found by SHELXT:  C38 N18 O12 I

CELL  0.71073   7.0400   9.2600  11.5800   90.000   97.780   90.000
ZERR   15.000   0.0014   0.0019   0.0023    0.000    0.030    0.000
LATT -1
SYMM X, -Y, Z
SFAC C H N O I
UNIT 15 15 15 15 0
L.S. 10
BOND
LIST 6
FMAP 2
PLAN 20
I001  5  0.57766  0.00000  0.83996 10.50000  0.00010  51.67
N002  3  0.25408  0.65413  0.75133 11.00000  0.14655  13.63
O003  4  0.81721  0.00000  0.73552 10.50000  0.08493  13.56
N004  3 -0.06856  0.59480  0.82498 11.00000  0.05250  13.22
C005  1 -0.04729  0.50000  0.09349 10.50000  0.05305  12.38
N006  3  0.14048  0.50000  0.65206 10.50000  0.03839  11.14
O007  4  1.20805  0.00000  0.15396 10.50000  0.11099  10.93
N008  3 -0.15840  0.50000  0.88049 10.50000  0.08884  10.87
O009  4  0.45438  0.24611  0.66488 11.00000  0.25803  10.62
O00A  4  0.51660  0.50000  0.48787 10.50000  0.22747   9.88
N00B  3  0.01680  0.50000  0.68591 10.50000  0.03571   9.55
N00C  3  0.95760  0.00000  0.33568 10.50000  0.01680   9.24
N00D  3  0.96102  0.00000  0.25756 10.50000  0.13641   9.16
N00E  3  0.16153  0.00000  0.81361 10.50000  0.04475   9.16
O00F  4 -0.22976  0.50000  0.16276 10.50000  0.17468   8.87
C00G  1  0.27844  0.50000  0.53074 10.50000  0.08635   8.78
N00H  3 -0.14320  0.50000  0.76587 11.00000  0.12217   7.89
O00I  4  0.13320  0.76521  0.76872 11.00000  0.14803   7.56
O00J  4  0.06497  0.00000  0.92134 10.50000  0.06574   7.29
C00K  1  0.15275  0.50000  0.80945 10.50000  0.11030   7.00
N00L  3  0.40365  0.00000  0.47818 10.50000  0.12177   6.99
N00M  3  0.41771  0.50000  0.19416 10.50000  0.08773   6.72
N00N  3  0.41177  0.28093  0.34852 11.00000  0.09661   6.69
C00O  1  0.40837  0.00000  0.90133 10.50000  0.03405   6.50
C00P  1  0.02731  0.50000  0.75379 10.50000  0.06553   6.22
C00Q  1  0.15595  0.50000  0.22419 10.50000  0.10076   5.75
C00R  1  0.62447  0.40784  0.75700 11.00000  0.04383   5.47
C00S  1  0.16017  0.00000  0.66801 10.50000  0.15699   5.41
O00T  4 -0.22145  0.50000  0.30433 10.50000  0.33565   5.39
N00U  3  0.70838  0.00000  0.52111 10.50000  0.09869   5.38
N00V  3  0.89543  0.00000  0.06929 10.50000  0.04003   5.34
C00W  1  0.13111  0.00000  0.86917 10.50000  0.01403   4.91
C00X  1  1.22976  0.00000  0.25245 10.50000  0.06994   4.91
C00Y  1  0.54137  0.50000  0.93071 10.50000  0.07359   4.70
C00Z  1  0.32025  0.50000  0.84341 10.50000  0.03421   4.68
C010  1  0.83832  0.00000  0.14186 10.50000  0.05470   4.66
C011  1  1.11052  0.00000  0.21503 10.50000  0.06477   4.64
C012  1  0.15194  0.75754  0.83706 11.00000  0.04204   4.52
C013  1  0.63261  0.41048  0.81218 11.00000  0.00010   4.46
C014  1  0.62009  0.41718  0.87133 11.00000  0.01142   4.38
C015  1  0.81736  0.00000  0.49115 10.50000  0.06806   4.15
C016  1  0.00573  0.65467  0.89420 11.00000  0.10513   4.08
C017  1  1.20379  0.08756  0.32640 11.00000  0.03664   4.08
C018  1  0.01989  0.34208  0.16323 11.00000  0.12115   4.07
C019  1  0.59380 -0.12541  0.16195 11.00000  0.08162   3.97
C01A  1  0.22953  0.33150  0.43853 11.00000  0.07111   3.88
C01B  1  0.49406  0.50000  0.79438 10.50000  0.05506   3.82
C01C  1  0.04460  0.50000  0.30695 10.50000  0.10720   3.80
C01D  1  0.67323  0.20193  0.92825 11.00000  0.12251   3.75
C01E  1  0.29811  0.15872  0.50817 11.00000  0.06081   3.73
O01F  4  0.68979  0.25260  0.65179 11.00000  0.12228   3.59
HKLF 4
END
