TITL P2_expF_1_3_expS_1_3_P2_a.res in Pm
REM Old TITL P2(1)-1 in P2(1)
REM SHELXT solution in Pm: R1 0.629, Rweak 0.204, Alpha 0.137
REM <I/s>   0.000 for    0 systematic absences,  Orientation as input
REM Formula found by SHELXT:  C26 N16 O15 Cl4

CELL  0.71073   7.0400   9.2600  11.5800   90.000   97.780   90.000
ZERR   15.000   0.0014   0.0019   0.0023    0.000    0.030    0.000
LATT -1
SYMM X, -Y, Z
SFAC C H N O CL
UNIT 15 15 15 15 0
L.S. 10
BOND
LIST 6
FMAP 2
PLAN 20
CL01  5  0.29865  0.87221  0.72420 11.00000  0.08434  17.18
CL02  5  0.39585  1.00000  0.61403 10.50000  0.08566  16.34
CL03  5  0.30265  0.50000  0.04203 10.50000  0.07244  13.04
C004  1  0.11262  0.50000  0.61446 10.50000  0.00010  12.58
O005  4  1.07080  1.00000  0.88229 10.50000  0.00010  12.27
N006  3  0.90179  0.76159  0.72506 11.00000  0.02080  12.07
O007  4  0.49242  0.75400  0.53344 11.00000  0.03151  11.30
N008  3  0.47569  0.50000  0.18626 10.50000  0.04014  11.25
N009  3  1.10825  1.00000  0.58849 10.50000  0.00010  11.09
O00A  4  0.11591  0.50000  0.64580 10.50000  0.00010  10.47
O00B  4  0.61773  0.75138  0.30925 11.00000  0.08325  10.07
O00C  4  0.38221  0.40777  0.13933 11.00000  0.03155   9.98
N00D  3  0.30491  1.00000  0.08266 10.50000  0.05165   9.41
O00E  4  0.19729  0.62124  0.55226 11.00000  0.02676   9.07
O00F  4  0.66887  0.50000  0.72092 10.50000  0.04137   9.07
O00G  4  0.87955  1.00000  0.95797 10.50000  0.01794   8.74
N00H  3  0.48022  1.00000  0.08663 10.50000  0.00010   8.72
N00I  3  0.84723  1.00000  0.52562 10.50000  0.00010   8.67
N00J  3  0.11521  0.87318  0.20307 11.00000  0.02199   8.33
N00K  3  1.04701  1.00000  0.72849 10.50000  0.02629   8.13
N00L  3  0.55073  1.08465  0.12895 11.00000  0.02795   7.66
N00M  3  0.31699  0.50000  0.22966 10.50000  0.04718   7.61
N00N  3  0.83387  1.00000  0.57618 10.50000  0.00756   7.58
C00O  1  0.04906  1.00000  0.15096 10.50000  0.00010   7.46
N00P  3  0.52789  1.00000  0.48665 10.50000  0.01516   7.39
O00Q  4 -0.03564  0.42628  0.16902 11.00000  0.08881   7.29
N00R  3  0.65723  1.00000  0.82162 10.50000  0.04023   7.07
C00S  1 -0.10825  1.00000  0.12048 10.50000  0.00807   6.33
C00T  1  0.48691  0.76065  0.80081 11.00000  0.01344   6.23
C00U  1  0.47717  1.00000  0.22183 10.50000  0.00958   6.03
C00V  1  0.89621  0.73381  0.78514 11.00000  0.00010   5.68
C00W  1  1.03751  1.08801  0.58665 11.00000  0.01046   5.02
C00X  1  0.71818  1.00000  0.30125 10.50000  0.00010   4.75
C00Y  1  0.91364  0.72342  0.83988 11.00000  0.00010   3.99
C00Z  1  0.28147  0.86858  0.22358 11.00000  0.00639   3.87
C010  1  0.11393  0.50000  0.68353 10.50000  0.00010   3.82
O011  4  0.67226  0.50000  0.47809 10.50000  0.02935   3.49
C012  1  0.37299  1.00000  0.43623 10.50000  0.05447   3.46
C013  1  0.34160  0.87253  0.32448 11.00000  0.01124   3.45
C014  1  0.19479  1.00000  0.18571 10.50000  0.00713   3.37
C015  1  0.43382  0.50000  0.41301 10.50000  0.00795   3.30
C016  1  0.72950  1.00000  0.43361 10.50000  0.00430   3.26
C017  1  0.55736  0.72245  0.65532 11.00000  0.00744   3.25
C018  1  0.72913  0.86811  0.82021 11.00000  0.00010   3.19
HKLF 4
END
