TITL P2_expF_1_2_expS_0_6_P2_a.res in Pm
REM Old TITL P2(1)-1 in P2(1)
REM SHELXT solution in Pm: R1 0.371, Rweak 0.645, Alpha 0.205
REM <I/s>   0.000 for    0 systematic absences,  Orientation as input
REM Formula found by SHELXT:  C25 N9 O13

CELL  0.71073   7.0400   9.2600  11.5800   90.000   97.780   90.000
ZERR   15.000   0.0014   0.0019   0.0023    0.000    0.030    0.000
LATT -1
SYMM X, -Y, Z
SFAC C H N O
UNIT 15 15 15 15
L.S. 10
BOND
LIST 6
FMAP 2
PLAN 20
N001  3  0.54973  0.50000  0.28996 10.50000  0.00010  14.84
O002  4  0.37195  0.00000  0.27596 10.50000  0.00010  12.48
N003  3  0.63658  0.50000  0.18899 10.50000  0.02074  12.42
C004  1 -0.12815  0.50000  0.75742 10.50000  0.00186  11.08
O005  4 -0.28033  0.50000  0.83826 10.50000  0.00010  10.32
O006  4  0.75041  0.10272  0.34564 11.00000  0.01584   9.31
N007  3  0.30465  0.00000  0.02000 10.50000  0.08491   8.69
O008  4  0.42381  0.00000  0.39201 10.50000  0.00045   8.04
O009  4  0.77536  0.00000  0.65626 10.50000  0.06219   8.03
N00A  3  0.38265  0.50000  0.24665 10.50000  0.00010   7.75
C00B  1  0.11528  0.50000  0.31915 10.50000  0.00255   7.46
N00C  3 -0.13388  0.50000  0.37178 10.50000  0.14905   7.32
O00D  4 -0.18296  0.50000  0.48751 10.50000  0.05979   7.24
C00E  1  0.46334  0.40995  0.33951 11.00000  0.00010   6.89
N00F  3  0.30873  0.19051  0.32589 11.00000  0.00491   6.73
O00G  4  1.22626  0.27729  0.83400 11.00000  0.04251   6.64
O00H  4  0.56721  0.12419  0.80343 11.00000  0.06910   6.29
C00I  1 -0.10467  0.50000  0.61729 10.50000  0.04831   6.24
C00J  1  1.20060  0.22034  0.88961 11.00000  0.01312   6.13
C00K  1  0.35498  0.00000  0.46868 10.50000  0.02925   6.11
O00L  4 -0.04345  0.39971  0.26184 11.00000  0.09822   6.09
C00M  1  0.93016  0.14897  0.81639 11.00000  0.00576   5.84
C00N  1  0.68779  0.00000  0.27697 10.50000  0.00010   5.26
C00O  1  0.92670  0.11778  0.30960 11.00000  0.04449   5.09
C00P  1  0.40878  0.00000  0.15519 10.50000  0.00782   5.08
C00Q  1  1.01041  0.00000  0.36347 10.50000  0.00010   4.94
C00R  1  0.12838  0.50000  0.14578 10.50000  0.03334   4.76
C00S  1  0.99884  0.00000  0.31860 10.50000  0.00010   4.72
C00T  1  0.39402  0.32683  0.37197 11.00000  0.03028   4.60
C00U  1  1.28033  0.00000  0.67006 10.50000  0.00010   4.44
C00V  1  0.96693  0.00000  0.62318 10.50000  0.03929   4.20
N00W  3  0.93231  0.30101  0.98000 11.00000  0.05908   4.12
C00X  1  0.77761  0.00000  0.48040 10.50000  0.00822   3.71
C00Y  1  1.07362  0.10391  0.49668 11.00000  0.01364   3.64
C00Z  1  0.61464  0.00000  0.89076 10.50000  0.00010   3.15
HKLF 4
END
