TITL P2_expF_1_3_expS_0_9_P2_a.res in Pm
REM Old TITL P2(1)-1 in P2(1)
REM SHELXT solution in Pm: R1 0.427, Rweak 0.491, Alpha 0.237
REM <I/s>   0.000 for    0 systematic absences,  Orientation as input
REM Formula found by SHELXT:  C51 N14 O13 I

CELL  0.71073   7.0400   9.2600  11.5800   90.000   97.780   90.000
ZERR   15.000   0.0014   0.0019   0.0023    0.000    0.030    0.000
LATT -1
SYMM X, -Y, Z
SFAC C H N O I
UNIT 15 15 15 15 0
L.S. 10
BOND
LIST 6
FMAP 2
PLAN 20
I001  5  0.40211  0.50000  0.31520 10.50000  0.06561  57.29
O002  4  0.36231  0.36198 -0.00264 11.00000  0.05323  12.32
N003  3  0.77826  0.50000  0.79643 10.50000  0.00224  12.03
O004  4  0.69896  0.50000 -0.00922 10.50000  0.01928  11.32
N005  3  0.49408  0.50000  0.81471 10.50000  0.01971  11.23
O006  4  0.59839  0.33343  0.12870 11.00000  0.01216  10.62
N007  3  0.16512  0.50000  0.39020 10.50000  0.04375  10.29
O008  4  0.49239  0.66915  0.82787 11.00000  0.05560   9.45
O009  4  0.55724  0.50000  0.52356 10.50000  0.00010   9.25
O00A  4  0.28035  0.23833  0.09659 11.00000  0.11571   8.98
O00B  4  0.38747  0.50000  0.00946 10.50000  0.08703   8.60
N00C  3  0.73952  0.11248  0.30137 11.00000  0.01512   8.37
N00D  3  1.05672  0.50000  0.78353 10.50000  0.03980   8.34
O00E  4  0.44024  0.87928  0.82225 11.00000  0.03832   8.21
N00F  3  0.23137  0.00000  0.25331 10.50000  0.00010   7.51
N00G  3  0.82396  0.90008  0.81059 11.00000  0.02936   7.20
N00H  3 -0.04288  0.34432  0.35239 11.00000  0.00010   6.96
N00I  3  0.55809  0.24607  0.51335 11.00000  0.00010   6.69
C00J  1  1.01724  0.57747  0.81121 11.00000  0.00274   6.42
C00K  1  0.48989  0.00000  0.36168 11.00000  0.03726   6.08
C00L  1  0.28640  0.43697  0.14459 11.00000  0.06826   5.91
C00M  1  0.64983  0.50000  0.71356 10.50000  0.04500   5.72
C00N  1  0.11203  0.33972  0.31320 11.00000  0.00010   5.72
N00O  3  0.20376  0.00000  0.19859 10.50000  0.00010   5.66
C00P  1  0.57101  0.10939  0.32027 11.00000  0.01078   5.57
C00Q  1  0.74254  0.21254  0.40509 11.00000  0.02999   5.55
C00R  1  0.17462  0.50000  0.60145 10.50000  0.02852   5.48
C00S  1  0.31606  1.00000  1.00922 10.50000  0.09447   5.39
C00T  1  0.13628  0.34078  0.46476 11.00000  0.04086   5.08
C00U  1  0.65615  0.00000  0.32885 10.50000  0.00529   4.80
C00V  1  0.03234  0.19477  0.29902 11.00000  0.02347   4.58
C00W  1  0.69704  0.35189  0.61417 11.00000  0.00010   4.58
C00X  1 -0.05672  0.32348  0.30667 11.00000  0.00010   4.56
C00Y  1  0.55304  0.77852  0.78278 11.00000  0.05659   4.52
C00Z  1  0.73320  0.38544  0.47985 11.00000  0.01491   4.33
C010  1  0.73967  0.00000  0.44451 10.50000  0.01221   4.22
C011  1  0.98285  1.00000  0.71493 10.50000  0.00010   4.12
C012  1  0.68114  0.36108  0.01344 11.00000  0.02616   4.11
C013  1  0.30983  0.50000  0.68292 10.50000  0.04943   3.70
C014  1  0.75315  1.00000  0.96083 10.50000  0.00010   3.62
C015  1  0.61379  0.38397  0.63630 11.00000  0.01708   3.59
C016  1  1.02468  0.50000  0.95404 10.50000  0.00010   3.55
C017  1  0.32979  0.00000  0.20781 10.50000  0.00772   3.48
C018  1  0.35198  0.33352  0.25444 11.00000  0.00609   3.48
C019  1  0.05378  0.50000  0.52716 11.00000  0.05455   3.40
C01A  1  0.21918  0.60177  0.63349 11.00000  0.02767   3.34
C01B  1  0.69753  0.24173  0.26916 11.00000  0.03934   3.25
C01C  1  0.26764  0.25509  0.28870 11.00000  0.00828   3.25
C01D  1  0.56233  1.00000  0.95196 10.50000  0.01703   3.22
C01E  1  0.55706  0.22744  0.47235 11.00000  0.00010   3.21
HKLF 4
END
