TITL P2_expF_1_1_expS_1_1_P2_a.res in Pm
REM Old TITL P2(1)-1 in P2(1)
REM SHELXT solution in Pm: R1 0.529, Rweak 0.934, Alpha 0.294
REM <I/s>   0.000 for    0 systematic absences,  Orientation as input
REM Formula found by SHELXT:  C23 N4 O13

CELL  0.71073   7.0400   9.2600  11.5800   90.000   97.780   90.000
ZERR   15.000   0.0014   0.0019   0.0023    0.000    0.030    0.000
LATT -1
SYMM X, -Y, Z
SFAC C H N O
UNIT 15 15 15 15
L.S. 10
BOND
LIST 6
FMAP 2
PLAN 20
O001  4  0.46472  0.50000  0.40479 10.50000  0.04435  13.41
O002  4  0.21888  0.64271  0.93072 11.00000  0.05520  11.45
N003  3  0.59468 -0.08794  0.40560 11.00000  0.04600   9.31
O004  4  0.31792  0.50000  0.50816 10.50000  0.05365   8.86
O005  4  0.79923  0.00000  0.19799 10.50000  0.05129   8.65
O006  4  0.65614  0.50000 -0.03323 10.50000  0.08057   7.35
O007  4  0.38709  0.50000  0.75058 10.50000  0.07703   7.33
C008  1  0.43279  0.50000  0.58879 10.50000  0.01984   6.35
N009  3  1.26892  0.20714  0.43805 11.00000  0.03688   6.33
C00A  1  0.07729  0.50000  0.58979 10.50000  0.03362   6.05
O00B  4  0.88161  0.27321  0.41439 11.00000  0.01472   6.00
C00C  1  0.56651  0.50000  0.11397 10.50000  0.07441   5.86
C00D  1  0.09282  0.50000  0.75674 10.50000  0.03528   5.86
O00E  4  0.21848  0.50000  0.25899 10.50000  0.01568   5.61
C00F  1  0.06524  1.00000  0.86449 10.50000  0.02086   5.52
O00G  4  0.79488  0.35269  0.44631 11.00000  0.05094   5.12
C00H  1  0.33095  0.86306  0.94230 11.00000  0.03607   5.02
C00I  1  0.67834  0.57284  0.24270 11.00000  0.03185   4.89
C00J  1  0.85189  0.00000  0.49707 10.50000  0.01325   4.61
C00K  1  0.77746  0.21110  0.33357 11.00000  0.07302   4.09
C00L  1  0.36441  0.50000  0.29773 10.50000  0.00428   4.02
C00M  1  0.18192  0.66651  1.08157 11.00000  0.05198   3.91
C00N  1  0.40691  0.89958  1.01079 11.00000  0.01029   3.74
O00O  4  0.91775  0.50000  0.36823 10.50000  0.03166   3.59
C00P  1  0.75180  0.62906 -0.08157 11.00000  0.07671   3.49
C00Q  1  0.64474  0.00000  0.54177 10.50000  0.02942   3.40
C00R  1 -0.26892  1.00000  0.91760 10.50000  0.02109   3.31
C00S  1  1.06812  0.11670  0.46177 11.00000  0.14257   3.03
HKLF 4
END
