TITL P2_expF_0_6_expS_0_9_P2_a.res in Pm
REM Old TITL P2(1)-1 in P2(1)
REM SHELXT solution in Pm: R1 0.233, Rweak 0.690, Alpha 0.187
REM <I/s>   0.000 for    0 systematic absences,  Orientation as input
REM Formula found by SHELXT:  C41 N3 O9 Br

CELL  0.71073   7.0400   9.2600  11.5800   90.000   97.780   90.000
ZERR   15.000   0.0014   0.0019   0.0023    0.000    0.030    0.000
LATT -1
SYMM X, -Y, Z
SFAC C H N O BR
UNIT 15 15 15 15 0
L.S. 10
BOND
LIST 6
FMAP 2
PLAN 20
BR01  5 -0.05682  0.50000  0.60472 10.50000  0.00137  36.72
C002  1  0.50081  0.50000  0.53490 10.50000  0.08092  13.92
O003  4  1.18295  1.00000  0.52558 10.50000  0.05434  12.22
O004  4  1.19589  1.00000  0.59987 10.50000  0.06702  10.56
O005  4  0.98045  1.00000  0.41556 10.50000  0.10092  10.14
O006  4 -0.14387  0.72331  0.42506 11.00000  0.12369   9.54
N007  3  0.86075  1.00000  0.62649 10.50000  0.09343   8.60
O008  4  1.34090  1.00000  0.35984 10.50000  0.14406   8.46
N009  3  1.36019  1.00000  0.44390 10.50000  0.07100   8.39
O00A  4 -0.15397  0.50000  0.23521 10.50000  0.16143   8.20
O00B  4  0.08849  0.50000  0.27477 10.50000  0.18999   8.14
O00C  4  0.76286  1.00000  0.94997 10.50000  0.11040   8.12
N00D  3  0.62789  1.00000  0.55629 10.50000  0.10911   8.09
C00E  1  0.61835  0.50000  0.45534 10.50000  0.08693   7.68
C00F  1  0.10376  0.61982  0.53832 11.00000  0.01783   6.66
C00G  1  0.29626  0.50000  0.96484 10.50000  0.12643   6.46
C00H  1  0.10699  0.62876  0.48538 11.00000  0.03093   6.45
C00I  1  0.12170  0.66421  0.42405 11.00000  0.05843   6.38
C00J  1  0.93724  0.95600  0.28891 11.00000  0.20293   6.10
C00K  1 -0.20461  0.31490  0.09935 11.00000  0.11249   6.05
C00L  1  0.42210  0.92825  1.06717 11.00000  0.15934   6.01
C00M  1  0.88775  0.95451  0.55910 11.00000  0.05502   5.78
C00N  1  0.34076  0.76278  0.61677 11.00000  0.07729   5.60
C00O  1  0.42259  0.91687  0.95439 11.00000  0.13298   4.49
C00P  1 -0.02567  0.50000  0.85958 10.50000  0.16537   4.32
C00Q  1 -0.36019  0.50000 -0.06717 10.50000  0.07466   4.31
C00R  1  0.63775  0.82042  0.60315 11.00000  0.07884   4.18
C00S  1  0.72280  1.00000  0.79343 10.50000  0.15404   4.16
C00T  1  0.50923  0.50000  0.64844 10.50000  0.09774   4.06
C00U  1  0.60052  0.78407  0.51575 11.00000  0.08135   3.84
C00V  1  0.29165  0.62364  0.65433 11.00000  0.07609   3.60
C00W  1  0.51730  0.50000  0.31926 10.50000  0.07976   3.58
C00X  1  0.95151  1.00000  0.71450 10.50000  0.05663   3.34
C00Y  1 -0.08671  0.68739  0.65931 11.00000  0.07169   3.25
C00Z  1 -0.21429  0.43580  0.10186 11.00000  0.12703   3.06
C010  1  0.24816  0.50000  0.82654 10.50000  0.05460   3.05
C011  1 -0.03961  0.64657  0.92635 11.00000  0.09697   3.02
C012  1  0.12631  0.50000  0.91213 10.50000  0.15138   3.00
HKLF 4
END
