TITL P2_expF_1_4_expS_1_5_P2_a.res in Pm
REM Old TITL P2(1)-1 in P2(1)
REM SHELXT solution in Pm: R1 0.622, Rweak 0.220, Alpha 0.048
REM <I/s>   0.000 for    0 systematic absences,  Orientation as input
REM Formula found by SHELXT:  C26 N15 O17

CELL  0.71073   7.0400   9.2600  11.5800   90.000   97.780   90.000
ZERR   15.000   0.0014   0.0019   0.0023    0.000    0.030    0.000
LATT -1
SYMM X, -Y, Z
SFAC C H N O
UNIT 15 15 15 15
L.S. 10
BOND
LIST 6
FMAP 2
PLAN 20
O001  4  0.58422  1.00000  0.44099 10.50000  0.00506   9.84
O002  4  0.64302  0.65434  0.66126 11.00000  0.04430   9.73
N003  3  0.80037  0.50000  0.71378 10.50000  0.00010   9.51
O004  4  1.18480  0.50000  0.22384 10.50000  0.01669   9.47
O005  4  0.44567  1.00000  0.83530 10.50000  0.02380   9.36
N006  3  0.66339  0.50000  0.59158 10.50000  0.01428   9.20
O007  4 -0.01048  1.00000 -0.04384 10.50000  0.03845   9.02
O008  4  0.24257  1.00000  0.62801 10.50000  0.02071   8.66
N009  3  1.18218  0.50000  0.42295 10.50000  0.02378   8.64
O00A  4  0.49220  0.71293  0.92040 11.00000  0.01068   8.59
O00B  4 -0.14206  0.88461  0.44638 11.00000  0.00315   8.34
O00C  4  0.76741  0.50000  1.04384 10.50000  0.04153   8.26
O00D  4  0.18483  1.00000  0.80737 10.50000  0.00010   8.13
O00E  4 -0.10884  0.72916  0.55550 11.00000  0.03231   8.11
C00F  1  0.02733  1.00000  0.73827 10.50000  0.00768   7.96
N00G  3  0.98750  0.50000  0.72099 10.50000  0.00010   7.84
O00H  4  0.52633  0.77489  0.51570 11.00000  0.00873   7.78
N00I  3 -0.07609  1.00000  0.25573 10.50000  0.00010   7.77
N00J  3  0.26302  0.88873  0.38838 11.00000  0.03911   7.20
N00K  3  0.12633  0.80778  0.47470 11.00000  0.09001   7.04
C00L  1  0.30381  1.00000  0.45652 10.50000  0.12138   6.92
N00M  3  0.88820  0.50000  0.84771 10.50000  0.00868   6.72
N00N  3  0.82423  0.50000  0.48561 10.50000  0.03588   6.71
N00O  3  0.64935  1.00000  0.79025 10.50000  0.00073   6.58
N00P  3 -0.06993  1.00000  0.65866 10.50000  0.00611   6.55
N00Q  3  0.37735  0.71548  0.73324 11.00000  0.00060   6.54
C00R  1 -0.23622  1.00000  0.22717 10.50000  0.00010   6.25
C00S  1  0.36801  0.57366  0.87641 11.00000  0.06228   6.14
C00T  1  1.26960  0.50000  0.30532 10.50000  0.00253   6.03
C00U  1  0.11975  1.00000  0.12334 10.50000  0.00010   5.96
C00V  1  0.88749  0.50000  0.64556 10.50000  0.00820   5.87
C00W  1 -0.18950  1.00000  0.19820 10.50000  0.00010   5.50
C00X  1  0.07880  1.00000  0.47480 10.50000  0.00010   5.46
C00Y  1  0.50207  1.00000  0.53877 10.50000  0.03607   5.38
C00Z  1  1.00014  0.50000  0.35526 10.50000  0.02491   5.31
C010  1 -0.12438  0.90547  0.12311 11.00000  0.01915   5.30
C011  1  0.26094  0.65282  1.04382 11.00000  0.00010   4.98
C012  1  0.27861  0.50000  1.00291 10.50000  0.00010   4.93
C013  1  0.62365  1.00000  0.88315 10.50000  0.08229   4.53
C014  1  0.11424  0.73822  0.33646 11.00000  0.08968   4.37
C015  1 -0.26960  0.85278  0.31361 11.00000  0.03116   4.01
C016  1  0.43917  1.00000  0.14116 10.50000  0.00010   3.82
C017  1 -0.06558  0.85149  0.36723 11.00000  0.00010   3.81
C018  1  1.09144  0.50000  0.52168 10.50000  0.00010   3.79
HKLF 4
END
