TITL P2_expF_0_8_expS_1_4_P2_a.res in Pm
REM Old TITL P2(1)-1 in P2(1)
REM SHELXT solution in Pm: R1 0.399, Rweak 0.546, Alpha 0.238
REM <I/s>   0.000 for    0 systematic absences,  Orientation as input
REM Formula found by SHELXT:  C42 N20 O10 I

CELL  0.71073   7.0400   9.2600  11.5800   90.000   97.780   90.000
ZERR   15.000   0.0014   0.0019   0.0023    0.000    0.030    0.000
LATT -1
SYMM X, -Y, Z
SFAC C H N O I
UNIT 15 15 15 15 0
L.S. 10
BOND
LIST 6
FMAP 2
PLAN 20
I001  5  0.52297  1.00000  0.20374 10.50000  0.03853  51.74
O002  4  0.15006  1.00000  0.70838 10.50000  0.00010  19.65
O003  4  0.28761  0.50000  0.17872 10.50000  0.01011  15.43
N004  3  0.64319  1.00000  0.47378 10.50000  0.04792  14.53
O005  4  1.36036  1.00000  0.00104 10.50000  0.00380  12.77
O006  4  0.87021  1.00000  0.39669 10.50000  0.06133  11.64
O007  4  0.51963  0.50000  0.17500 10.50000  0.04487  11.11
N008  3 -0.28036  1.00000  0.82462 10.50000  0.02003  11.07
N009  3  0.32093  1.00000  0.65990 10.50000  0.05702   9.78
O00A  4  0.80050  0.78951  0.22459 11.00000  0.12073   9.56
N00B  3  1.05470  1.00000  0.23346 10.50000  0.00010   9.39
O00C  4  0.57752  0.85235  0.70259 11.00000  0.01261   8.83
O00D  4  0.92977  0.50000  0.22688 10.50000  0.10377   7.99
N00E  3  0.72995  1.00000  0.15250 10.50000  0.00010   7.67
C00F  1  0.77970  0.82106  0.52579 11.00000  0.01466   7.40
N00G  3  0.75615  0.50000  0.52155 10.50000  0.00010   7.34
N00H  3  0.54288  0.86158  0.50940 11.00000  0.03266   7.27
N00I  3  0.84047  0.64344  0.18650 11.00000  0.03156   7.24
N00J  3  1.05444  1.00000  0.13293 10.50000  0.00010   7.20
N00K  3 -0.36036  1.00000  0.87406 10.50000  0.02725   7.19
N00L  3  0.49521  0.61027  0.69776 11.00000  0.01131   7.11
N00M  3  0.98902  0.90269  0.17283 11.00000  0.06283   6.92
N00N  3 -0.10437  0.90761  0.71790 11.00000  0.01537   6.69
C00O  1 -0.25185  0.77947  0.99896 11.00000  0.00411   6.11
C00P  1  0.36660  0.89524  0.51060 11.00000  0.03689   5.83
C00Q  1  0.72250  1.00000  0.09956 10.50000  0.00010   5.73
C00R  1  0.35931  0.88243  0.26892 11.00000  0.00299   5.57
C00S  1  0.70931  0.70247  0.68217 11.00000  0.01748   5.36
C00T  1  0.94427  0.81167  0.57047 11.00000  0.01513   5.28
C00U  1  1.09625  0.65997  0.68864 11.00000  0.01708   5.26
C00V  1  0.69646  1.00000  0.33437 11.00000  0.03239   5.07
C00W  1  0.71384  0.50000  0.13007 10.50000  0.04591   4.98
C00X  1  0.34515  1.00000  0.70563 10.50000  0.00010   4.78
C00Y  1 -0.22980  0.84546  0.87002 11.00000  0.00665   4.52
C00Z  1  1.07311  1.00000  0.18893 10.50000  0.00010   4.39
C010  1  0.28067  1.00000  0.52010 10.50000  0.01739   3.98
C011  1  0.52185  1.00000  0.16063 10.50000  0.00010   3.98
C012  1 -0.00258  0.87825  0.79971 11.00000  0.03855   3.87
C013  1  1.15948  0.75749  0.49954 11.00000  0.00010   3.67
C014  1  1.20274  0.67823  0.46255 11.00000  0.00010   3.62
C015  1  0.40094  0.76671  0.37680 11.00000  0.01706   3.45
C016  1  0.44045  0.50000  0.82275 10.50000  0.04606   3.45
C017  1  0.65685  0.76332  0.38692 11.00000  0.01126   3.41
C018  1  1.16877  1.00000  0.00570 10.50000  0.09384   3.38
N019  3  1.00435  0.86379  0.51801 11.00000  0.02789   3.37
C01A  1  0.85122  0.65217  0.60764 11.00000  0.02702   3.30
C01B  1  0.72296  0.62603  0.28586 11.00000  0.02547   3.30
C01C  1  0.74976  0.50000  0.47196 11.00000  0.05304   3.18
HKLF 4
END
