TITL P2_expF_0_6_expS_0_7_P2_a.res in Pm
REM Old TITL P2(1)-1 in P2(1)
REM SHELXT solution in Pm: R1 0.177, Rweak 0.435, Alpha 0.146
REM <I/s>   0.000 for    0 systematic absences,  Orientation as input
REM Formula found by SHELXT:  C27 N6 O13 Br

CELL  0.71073   7.0400   9.2600  11.5800   90.000   97.780   90.000
ZERR   15.000   0.0014   0.0019   0.0023    0.000    0.030    0.000
LATT -1
SYMM X, -Y, Z
SFAC C H N O BR
UNIT 15 15 15 15 0
L.S. 10
BOND
LIST 6
FMAP 2
PLAN 20
BR01  5  0.53334  0.50000  0.60257 10.50000  0.00010  30.24
N002  3  0.73248  0.50000  0.53961 10.50000  0.10178  14.22
O003  4  0.03854  0.00000  0.49340 10.50000  0.19712  12.55
N004  3  0.53667  0.00000  0.54314 10.50000  0.23909  11.39
O005  4  0.51346  0.46300  0.51518 11.00000  0.14051  11.39
N006  3  0.11250  0.00000  0.43036 10.50000  0.07118  11.22
O007  4 -0.01570  0.00000  0.65594 10.50000  0.24566  10.28
O008  4  0.82764  0.50000  0.36403 10.50000  0.30383   9.69
N009  3  0.26765  0.00000  0.30474 10.50000  0.16853   8.94
O00A  4  0.37212  0.00000  0.48876 10.50000  0.25136   8.40
O00B  4 -0.05411  0.11280  0.61321 11.00000  0.24408   7.86
O00C  4  0.50704  0.26780  0.52551 11.00000  0.19963   7.58
O00D  4  0.91386  0.00000  0.85432 10.50000  0.12088   7.26
C00E  1 -0.18321  0.00000  0.52399 10.50000  0.10310   7.15
N00F  3  0.46471  0.00000  0.23123 10.50000  0.13594   7.08
N00G  3  0.13854  0.50000  0.11108 10.50000  0.06999   6.59
C00H  1  0.26951  0.00000  0.59786 10.50000  0.07576   6.47
C00I  1  0.71156  0.50000  0.10392 10.50000  0.09462   6.25
C00J  1  0.79652  0.50000  0.47901 10.50000  0.08443   5.75
C00K  1  0.63754  0.16196  0.29161 11.00000  0.20644   5.74
C00L  1  0.74510  0.34967  0.28115 11.00000  0.10336   5.44
C00M  1  0.71526  0.41156  0.41430 11.00000  0.11235   5.34
C00N  1  0.47253  0.26884  0.42642 11.00000  0.09474   4.98
C00O  1  0.21270  0.50000 -0.06747 10.50000  0.09214   4.66
C00P  1  1.18321  0.19391  0.91207 11.00000  0.22025   4.30
C00Q  1  0.77025  0.00000  0.83340 10.50000  0.11387   4.19
C00R  1  0.52740  0.50000  0.64725 10.50000  0.00010   4.16
C00S  1  0.25191  0.33897  0.26920 11.00000  0.10149   4.09
C00T  1  0.73051  0.00000  0.93724 10.50000  0.12615   4.09
C00U  1  0.57368  0.05758  0.64306 11.00000  0.09334   3.71
C00V  1  0.63792  0.00000  1.08176 10.50000  0.16412   3.53
C00W  1  0.49932  0.00000  0.81542 10.50000  0.18566   3.47
C00X  1  0.05729  0.14793  0.53224 11.00000  0.15023   3.32
C00Y  1  0.70991  0.50000  0.30147 10.50000  0.22707   3.27
O00Z  4  0.52925  0.62300 -0.08176 11.00000  0.22415   3.08
HKLF 4
END
