TITL P2_expF_0_9_expS_0_5_P2_a.res in Pm
REM Old TITL P2(1)-1 in P2(1)
REM SHELXT solution in Pm: R1 0.283, Rweak 0.779, Alpha 0.058
REM <I/s>   0.000 for    0 systematic absences,  Orientation as input
REM Formula found by SHELXT:  C35 N12 O8 Cl

CELL  0.71073   7.0400   9.2600  11.5800   90.000   97.780   90.000
ZERR   15.000   0.0014   0.0019   0.0023    0.000    0.030    0.000
LATT -1
SYMM X, -Y, Z
SFAC C H N O CL
UNIT 15 15 15 15 0
L.S. 10
BOND
LIST 6
FMAP 2
PLAN 20
CL01  5  0.13406  1.00000  0.89259 10.50000  0.00010  23.37
O002  4  0.49024  1.00000  0.67126 10.50000  0.00010  11.92
N003  3  0.90800  0.50000  0.77607 10.50000  0.00010  11.12
N004  3  0.53297  1.00000  0.39333 10.50000  0.00882  10.75
O005  4  0.28049  1.00000  0.75661 10.50000  0.01541  10.27
O006  4  0.17193  1.00000  0.68393 10.50000  0.00010   9.43
O007  4  0.87701  1.00000  0.76287 10.50000  0.00628   8.66
O008  4  0.98476  0.50000  0.41334 10.50000  0.00010   8.32
N009  3  0.67250  1.00000  0.31718 10.50000  0.00010   7.74
O00A  4  0.29542  1.00000  0.21309 10.50000  0.14228   7.66
O00B  4  0.24202  0.66456  0.30656 11.00000  0.03667   7.44
N00C  3  0.51022  0.36067  0.16621 11.00000  0.00011   7.29
C00D  1  0.85641  0.50000  0.47218 10.50000  0.00010   7.16
N00E  3  0.74503  0.50000  0.72832 10.50000  0.00010   7.12
N00F  3 -0.03817  0.37015  0.07652 11.00000  0.06403   6.93
C00G  1  0.32478  1.00000  0.43920 10.50000  0.05385   6.67
C00H  1  0.58733  0.50000  0.73474 10.50000  0.00010   6.44
C00I  1  0.69978  0.50000  0.36160 10.50000  0.00010   6.23
C00J  1  0.34515  0.88232  0.37787 11.00000  0.07075   6.08
C00K  1  0.31747  0.50000  0.22811 10.50000  0.00010   6.06
C00L  1  0.52425  1.00000  0.52179 10.50000  0.01884   6.01
C00M  1  0.12839  0.50000  0.06927 10.50000  0.00010   5.83
C00N  1  1.05215  0.50000  0.65656 10.50000  0.04900   5.57
N00O  3  0.81995  1.00000  0.22184 10.50000  0.00454   5.49
C00P  1  0.54660  1.00000  0.20893 10.50000  0.00010   5.46
C00Q  1  1.19386  0.50000  0.80694 10.50000  0.00010   5.14
C00R  1  0.13386  0.50000  0.21902 10.50000  0.00010   5.12
C00S  1  0.65899  1.00000  0.62489 10.50000  0.00899   5.02
C00T  1 -0.13987  0.37040  0.15410 11.00000  0.05599   4.82
C00U  1  0.05946  1.00000  0.39227 10.50000  0.00097   4.79
C00V  1  0.76030  0.50000  0.83330 10.50000  0.00499   4.70
C00W  1  0.82462  0.62957  0.89169 11.00000  0.03234   4.59
N00X  3 -0.19386  0.38707  0.25470 11.00000  0.03193   4.51
N00Y  3  0.54243  0.50000  0.26334 10.50000  0.05121   4.50
C00Z  1  0.82039  0.50000  0.58630 10.50000  0.01540   4.29
C010  1  0.62090  0.50000 -0.02468 10.50000  0.06087   4.26
C011  1  0.46317  0.50000  0.40755 10.50000  0.00010   4.12
C012  1  0.27454  1.00000  0.59813 10.50000  0.00010   4.02
C013  1  0.69595  0.37233  0.67493 11.00000  0.03752   3.85
C014  1  0.82861  1.12478  0.40234 11.00000  0.01703   3.74
C015  1  0.36102  0.36720  0.67661 11.00000  0.06380   3.59
C016  1  0.61274  0.58500  0.50242 11.00000  0.23562   3.40
C017  1  0.52807  0.50000  0.11310 10.50000  0.00010   3.39
C018  1  0.24844  1.00000  1.02468 10.50000  0.00308   3.30
C019  1  1.00414  1.00000  0.21496 10.50000  0.00010   3.25
HKLF 4
END
