TITL P2_expF_1_1_expS_0_8_P2_a.res in Pm
REM Old TITL P2(1)-1 in P2(1)
REM SHELXT solution in Pm: R1 0.491, Rweak 0.920, Alpha 0.128
REM <I/s>   0.000 for    0 systematic absences,  Orientation as input
REM Formula found by SHELXT:  C12 N5 O5

CELL  0.71073   7.0400   9.2600  11.5800   90.000   97.780   90.000
ZERR   15.000   0.0014   0.0019   0.0023    0.000    0.030    0.000
LATT -1
SYMM X, -Y, Z
SFAC C H N O
UNIT 15 15 15 15
L.S. 10
BOND
LIST 6
FMAP 2
PLAN 20
O001  4  0.58509  0.50000  0.81845 10.50000  0.00010  15.05
O002  4  0.44394  0.50000  0.32257 10.50000  0.04015   7.25
N003  3  0.52570  0.68904  0.99386 11.00000  0.13226   6.73
N004  3  0.99589  1.00000  0.31344 10.50000  0.00010   6.09
C005  1 -0.17257  0.50000  0.51627 10.50000  0.00010   5.55
C006  1  1.02909  1.00000  0.18469 10.50000  0.00010   5.51
C007  1  0.86750  0.66817  0.14800 11.00000  0.03501   5.36
C008  1  0.94262  0.50000  0.05571 10.50000  0.02131   5.03
N009  3  0.20422  0.50000  0.81155 10.50000  0.00010   4.35
C00A  1  0.72205  0.64815  0.32863 11.00000  0.01542   4.04
C00B  1  0.41453  0.50000  0.61691 10.50000  0.00010   3.99
C00C  1  0.42125  0.88629  0.83765 11.00000  0.04597   3.81
O00D  4  0.99520  0.44532  0.00614 11.00000  0.05442   3.76
C00E  1  0.04370  0.50000  0.37987 10.50000  0.00010   3.69
C00F  1  0.18612  0.50000  0.31082 10.50000  0.03233   3.32
O00G  4  0.38784  0.50000  0.51454 10.50000  0.09243   3.19
N00H  3  1.17257  1.00000  0.06497 10.50000  0.00013   3.13
HKLF 4
END
