TITL P2_expF_1_3_expS_1_2_P2_a.res in Pm
REM Old TITL P2(1)-1 in P2(1)
REM SHELXT solution in Pm: R1 0.653, Rweak 0.394, Alpha 0.224
REM <I/s>   0.000 for    0 systematic absences,  Orientation as input
REM Formula found by SHELXT:  C22 N6 O7

CELL  0.71073   7.0400   9.2600  11.5800   90.000   97.780   90.000
ZERR   15.000   0.0014   0.0019   0.0023    0.000    0.030    0.000
LATT -1
SYMM X, -Y, Z
SFAC C H N O
UNIT 15 15 15 15
L.S. 10
BOND
LIST 6
FMAP 2
PLAN 20
O001  4  0.92751  0.50000  1.10085 10.50000  0.02663  12.40
O002  4  0.51027  0.50000  0.58562 10.50000  0.05868  11.43
O003  4  0.99794  0.50000  0.89996 10.50000  0.02802   9.56
O004  4  0.46504  0.50000  0.15833 10.50000  0.04590   9.10
O005  4  0.32969  0.00000 -0.08258 10.50000  0.03662   8.58
O006  4  0.04715  0.00000  0.15054 10.50000  0.13378   7.73
N007  3  0.06109  0.50000  0.38059 10.50000  0.04141   7.29
N008  3  0.69444  0.32445  0.40513 11.00000  0.04964   7.11
N009  3  0.26531  0.00000  0.46731 10.50000  0.05956   6.68
C00A  1 -0.00281  0.68931  0.27674 11.00000  0.16757   6.20
C00B  1  0.42215  0.50000  0.38356 10.50000  0.02209   5.70
O00C  4  0.89037  0.50000  0.75948 10.50000  0.11343   5.36
C00D  1  1.06784  0.50000  0.76936 10.50000  0.03928   5.11
C00E  1  0.83026  0.00000  0.58937 10.50000  0.01783   5.09
C00F  1  0.52692  0.12837  0.08929 11.00000  0.05348   4.81
C00G  1  0.35946 -0.06336  0.62103 11.00000  0.08845   4.40
N00H  3  0.59203  0.21947 -0.10085 11.00000  0.04788   4.38
C00I  1  0.11311  0.65432  0.41816 11.00000  0.05817   4.25
C00J  1  0.71808  0.00000  0.38420 10.50000  0.02254   4.23
C00K  1  0.65227  0.00000  0.57442 10.50000  0.03005   4.09
C00L  1  1.02343  0.00000  0.69765 10.50000  0.06932   4.08
C00M  1  0.14278  0.50000  0.49427 10.50000  0.02337   4.03
C00N  1  0.83223  0.36996  0.61504 11.00000  0.07134   3.86
C00O  1  0.33775  0.19625  0.10782 11.00000  0.04248   3.76
C00P  1 -0.06784 -0.10307  0.07141 11.00000  0.05474   3.09
C00Q  1  0.81993  0.50000  0.88811 10.50000  0.01469   3.09
HKLF 4
END
