TITL P2_expF_0_6_expS_0_5_P2_a.res in Pm
REM Old TITL P2(1)-1 in P2(1)
REM SHELXT solution in Pm: R1 0.328, Rweak 0.919, Alpha 0.183
REM <I/s>   0.000 for    0 systematic absences,  Orientation as input
REM Formula found by SHELXT:  C16 N2 O

CELL  0.71073   7.0400   9.2600  11.5800   90.000   97.780   90.000
ZERR   15.000   0.0014   0.0019   0.0023    0.000    0.030    0.000
LATT -1
SYMM X, -Y, Z
SFAC C H N O
UNIT 15 15 15 15
L.S. 10
BOND
LIST 6
FMAP 2
PLAN 20
O001  4  0.32422  0.00000  0.43095 10.50000  0.15174  14.40
N002  3  0.84661  0.50000  0.56332 10.50000  0.00010   7.93
C003  1  0.41095  0.26833  0.49897 11.00000  0.00010   5.76
C004  1  0.67613  0.50000  0.55594 10.50000  0.00010   5.62
C005  1  0.95348  0.67211  0.40863 11.00000  0.10145   5.33
C006  1  0.12707  0.00000  0.57715 10.50000  0.00010   5.30
C007  1  0.33289  0.00000  0.59137 10.50000  0.03438   5.11
C008  1  0.76978  0.50000  0.44880 10.50000  0.00010   4.97
C009  1  0.77950  0.34981  0.51421 11.00000  0.02946   4.87
C00A  1  0.39880  0.50000  0.55622 10.50000  0.00010   4.83
C00B  1 -0.03827  0.00000  0.47401 10.50000  0.00010   4.74
C00C  1  0.98711  0.50000  0.50878 10.50000  0.00010   4.04
N00D  3  0.59442  0.00000  0.52044 10.50000  0.00010   3.94
C00E  1  0.60134  0.00000  0.45743 10.50000  0.00010   3.82
C00F  1  1.03827  0.61916  0.49770 11.00000  0.00010   3.53
HKLF 4
END
