TITL P2_expF_1_2_expS_1_5_P2_a.res in P2
REM Old TITL P2(1)-1 in P2(1)
REM SHELXT solution in P2: R1 0.614, Rweak 0.166, Alpha 0.247
REM <I/s>   0.000 for    0 systematic absences,  Orientation as input
REM Formula found by SHELXT:  C58 N34 O7 I

CELL  0.71073   7.0400   9.2600  11.5800   90.000   97.780   90.000
ZERR   15.000   0.0014   0.0019   0.0023    0.000    0.030    0.000
LATT -1
SYMM -X, Y, -Z
SFAC C H N O I
UNIT 15 15 15 15 0
L.S. 10
BOND
LIST 6
FMAP 2
PLAN 20
I001  5  0.00000  0.61952  0.50000 10.50000  0.07779  56.24
O002  4  1.00000 -0.00053  1.00000 10.50000  0.02248  15.67
N003  3  0.90922  0.46864  0.98977 11.00000  0.00010  11.53
N004  3 -0.33040  1.00435  0.52753 11.00000  0.02089  11.39
O005  4 -0.48454  0.46430  0.28750 11.00000  0.00010  10.16
N006  3  0.14460  0.56184  0.80847 11.00000  0.02559  10.14
N007  3 -0.34355  0.64932  0.52780 11.00000  0.01835   9.86
N008  3  0.57975  0.29163  0.96718 11.00000  0.00010   9.59
N009  3  0.71377  0.78851  0.82149 11.00000  0.06820   9.19
O00A  4  0.72394  0.46587  0.80125 11.00000  0.01586   8.75
N00B  3  0.40506  0.63043  1.00444 11.00000  0.00010   8.72
N00C  3 -0.26936  0.33778  0.44014 11.00000  0.00409   8.43
N00D  3 -0.00120  0.60886  0.70840 11.00000  0.03247   8.24
N00E  3  0.80429  0.58495  0.89277 11.00000  0.04046   7.69
C00F  1 -0.15842  0.30325  0.67862 11.00000  0.00384   7.60
O00G  4  0.63338  0.19778  0.88320 11.00000  0.05552   7.32
C00H  1  0.42252  0.31921  0.90207 11.00000  0.00010   7.29
C00I  1 -0.17476  0.58786  0.60692 11.00000  0.00010   7.28
N00J  3  0.51635  0.73438  0.86480 11.00000  0.00010   7.00
C00K  1  0.84477  0.68771  0.81462 11.00000  0.00452   6.97
N00L  3  0.23171  0.74869  0.84028 11.00000  0.02762   6.86
C00M  1 -0.40069  0.68444  0.46650 11.00000  0.00010   6.73
N00N  3 -0.34909  1.12077  0.25670 11.00000  0.01458   6.65
N00O  3 -0.25651  0.27620  0.63038 11.00000  0.03503   6.58
C00P  1  0.46584  0.21169  0.89547 11.00000  0.03476   6.55
C00Q  1 -0.18175  0.41917  0.57391 11.00000  0.00059   6.39
C00R  1  0.38813  0.61023  0.76788 11.00000  0.00010   5.87
N00S  3  0.58989  0.94001  1.06747 11.00000  0.01564   5.79
C00T  1 -0.04766  0.23177  0.60748 11.00000  0.02774   5.62
C00U  1  1.01036 -0.12077  0.93194 11.00000  0.01305   5.50
C00V  1 -0.05439  0.05371  0.54608 11.00000  0.00010   5.46
C00W  1  0.30142  0.62247  0.87957 11.00000  0.00060   5.46
C00X  1 -0.16005  0.23947  0.49795 11.00000  0.00582   5.45
C00Y  1 -0.32257  0.63895  0.58863 11.00000  0.01168   5.23
C00Z  1  0.01869  0.80190  0.66944 11.00000  0.00010   5.18
C010  1  0.64142  0.40022  0.90131 11.00000  0.00685   5.04
C011  1  0.64389  0.83518  0.92806 11.00000  0.00108   5.00
N012  3 -0.43470  0.66546  0.65605 11.00000  0.09181   4.88
C013  1 -0.37668  0.40363  0.40848 11.00000  0.00010   4.83
C014  1 -0.01895  0.25889  0.71376 11.00000  0.03273   4.80
C015  1  0.50000  0.88678  1.00000 10.50000  0.00010   4.69
C016  1 -0.35327  0.26098  0.49754 11.00000  0.00314   4.66
C017  1 -0.00389  0.06997  0.59623 11.00000  0.01614   4.66
C018  1 -0.48429  0.17507  0.46004 11.00000  0.01502   4.58
C019  1 -0.33510  1.02121  0.39168 11.00000  0.01208   4.57
C01A  1  0.80846  0.39539  1.08906 11.00000  0.09972   4.54
N01B  3 -0.42218  0.32388  0.39037 11.00000  0.02913   4.52
C01C  1  1.00000  0.58907  1.00000 10.50000  0.00010   4.48
C01D  1 -0.42640  0.56136  0.55826 11.00000  0.01524   4.44
C01E  1 -0.40886  0.89700  0.47861 11.00000  0.00010   4.42
C01F  1 -0.50112  0.21471  0.41161 11.00000  0.00010   4.42
C01G  1  0.90668  0.12041  0.86921 11.00000  0.00963   4.26
HKLF 4
END
