TITL P2_expF_0_5_expS_1_5_P2_a.res in Pm
REM Old TITL P2(1)-1 in P2(1)
REM SHELXT solution in Pm: R1 0.269, Rweak 0.266, Alpha 0.151
REM <I/s>   0.000 for    0 systematic absences,  Orientation as input
REM Formula found by SHELXT:  C37 N6 O9 Br

CELL  0.71073   7.0400   9.2600  11.5800   90.000   97.780   90.000
ZERR   15.000   0.0014   0.0019   0.0023    0.000    0.030    0.000
LATT -1
SYMM X, -Y, Z
SFAC C H N O BR
UNIT 15 15 15 15 0
L.S. 10
BOND
LIST 6
FMAP 2
PLAN 20
BR01  5  0.01530  0.50000  0.43718 10.50000  0.00122  43.54
O002  4  0.25490  0.50000 -0.04409 10.50000  0.09702  20.02
O003  4  0.39993  0.50000 -0.06218 10.50000  0.04439  14.39
O004  4  0.17021  0.50000  0.03692 10.50000  0.12651  13.55
O005  4 -0.30907  0.50000  0.99711 10.50000  0.04689  13.26
N006  3 -0.29222  0.50000  0.85253 10.50000  0.04986  11.39
N007  3 -0.25846  0.50000  0.78229 10.50000  0.04288  11.29
O008  4  0.28448  0.50000  0.38971 10.50000  0.18945  10.56
O009  4  1.23820  0.00000  0.77562 10.50000  0.17181  10.31
C00A  1  1.26028  0.00000  0.39415 10.50000  0.06452  10.18
O00B  4  0.86520  0.00000  0.79242 10.50000  0.08578   9.90
O00C  4  0.73746  0.00000  0.41417 11.00000  0.10956   8.57
N00D  3  1.31824  0.00000  0.92919 10.50000  0.09402   7.63
N00E  3  0.59048  0.50000  0.38932 10.50000  0.05608   6.97
C00F  1 -0.11874  0.50000  0.78143 10.50000  0.04752   6.93
C00G  1 -0.13593  0.50000  0.91508 10.50000  0.04256   6.74
C00H  1  1.14303  0.00000  0.94259 10.50000  0.02718   6.60
N00I  3  1.04618  0.00000  0.47423 10.50000  0.11671   6.44
C00J  1 -0.15261  0.50000  0.96176 10.50000  0.02268   6.35
C00K  1  1.02893  0.10649  0.92757 11.00000  0.05119   5.94
C00L  1 -0.04749  0.65799  0.94299 11.00000  0.04896   5.91
C00M  1  0.67353  0.09477  0.46299 11.00000  0.05606   5.85
C00N  1  0.83076  0.00000  0.98407 10.50000  0.03482   5.29
C00O  1  1.25377  0.00000  0.52475 10.50000  0.09380   5.20
C00P  1  0.19578  0.38378  0.29444 11.00000  0.06715   5.08
C00Q  1  1.33289  0.00000  0.86589 10.50000  0.03556   4.96
C00R  1  1.27641  0.00000  0.34561 10.50000  0.02444   4.74
C00S  1  0.65932  0.34365  0.25840 11.00000  0.07810   4.65
C00T  1 -0.33289  0.50000  1.06218 10.50000  0.06427   4.61
C00U  1 -0.14092  0.38597  0.51825 11.00000  0.04547   4.32
C00V  1  0.39423  0.21396  0.46024 11.00000  0.08067   4.30
C00W  1  0.79224  0.00000  0.32956 10.50000  0.09009   3.91
C00X  1  0.97666  0.00000  0.62413 10.50000  0.08031   3.80
C00Y  1 -0.19206  0.40997  0.73651 11.00000  0.08220   3.77
C00Z  1  0.55623  0.29364  0.42514 11.00000  0.09045   3.74
C010  1  0.58597  0.50000  0.45147 10.50000  0.04939   3.47
C011  1 -0.18662  0.40032  0.64897 11.00000  0.04988   3.43
C012  1  1.11117  0.00000  1.00209 10.50000  0.06026   3.32
N013  3  1.32535  0.00000  0.72406 10.50000  0.26605   3.21
C014  1  0.18461  0.50000  0.14578 10.50000  0.10080   3.16
C015  1  0.01403  0.50000  0.47589 11.00000  0.00010   3.02
HKLF 4
END
