TITL P2_expF_0_7_expS_0_7_P2_a.res in Pm
REM Old TITL P2(1)-1 in P2(1)
REM SHELXT solution in Pm: R1 0.221, Rweak 0.875, Alpha 0.111
REM <I/s>   0.000 for    0 systematic absences,  Orientation as input
REM Formula found by SHELXT:  C30 N10 O9 Br

CELL  0.71073   7.0400   9.2600  11.5800   90.000   97.780   90.000
ZERR   15.000   0.0014   0.0019   0.0023    0.000    0.030    0.000
LATT -1
SYMM X, -Y, Z
SFAC C H N O BR
UNIT 15 15 15 15 0
L.S. 10
BOND
LIST 6
FMAP 2
PLAN 20
BR01  5  0.71564  0.50000  0.32013 10.50000  0.00010  35.97
N002  3  0.53155  0.50000  0.37581 10.50000  0.08563  13.59
N003  3  0.92378  0.11866  0.33081 11.00000  0.11182  13.25
N004  3  0.26736  0.50000  0.33362 10.50000  0.00010  12.64
N005  3  0.93584  0.00000  0.42019 10.50000  0.10833   9.60
N006  3  0.68745  0.00000  0.49052 10.50000  0.07600   9.35
O007  4  0.58804  0.50000  1.02574 10.50000  0.13133   9.30
O008  4  0.88470  0.50000  0.81059 10.50000  0.07161   8.98
N009  3  1.13116  0.50000  0.60842 10.50000  0.11843   8.82
O00A  4  0.62416  0.50000  0.94047 10.50000  0.11050   8.76
O00B  4  0.30450  0.00000  0.41003 10.50000  0.33556   8.53
O00C  4  0.58327  0.50000  0.54410 10.50000  0.25099   7.83
O00D  4  0.74485  0.27913  0.48354 11.00000  0.26164   7.82
N00E  3  0.41988  0.00000  0.26770 10.50000  0.05492   7.55
N00F  3  0.27086  0.50000  0.27612 10.50000  0.01493   6.76
C00G  1  0.83503  0.00000  0.35344 10.50000  0.00138   6.37
C00H  1  0.82905  0.00000  0.29733 10.50000  0.00010   6.05
N00I  3 -0.05347  0.00000 -0.00213 10.50000  0.14999   6.03
C00J  1  0.27811  0.50000  0.39039 10.50000  0.01677   5.93
C00K  1  0.35933  0.39456  0.37391 11.00000  0.08909   5.62
C00L  1  0.66843  0.00000  0.41227 10.50000  0.01925   4.94
C00M  1  0.46245  0.37787  0.47366 11.00000  0.17147   4.84
O00N  4  1.08962  0.50000  0.67941 10.50000  0.14368   4.68
C00O  1  1.05042  0.50000  0.54551 10.50000  0.06922   4.63
C00P  1  0.70356  0.00000  0.28945 10.50000  0.01336   4.47
C00Q  1  0.13210  0.00000  0.05946 10.50000  0.18565   4.42
C00R  1  0.46577  0.00000  0.31905 10.50000  0.01465   4.40
C00S  1  0.42570  0.37388  0.30181 11.00000  0.10035   4.28
C00T  1 -0.13116  0.00000 -0.02574 10.50000  0.12217   3.98
C00U  1  0.93666  0.50000  0.73406 10.50000  0.07467   3.74
C00V  1  0.35516  0.00000  0.71366 10.50000  0.11521   3.74
C00W  1  0.94654  0.50000  0.40406 10.50000  0.13880   3.64
C00X  1  0.39876  0.20018  0.42891 11.00000  0.10967   3.64
C00Y  1  0.81248  0.00000  0.42972 10.50000  0.15755   3.54
O00Z  4  0.89050  0.50000  0.65722 10.50000  0.13656   3.52
C010  1  0.87453  0.60925  0.24289 11.00000  0.05148   3.45
C011  1  0.56599 -0.10224  0.23668 11.00000  0.08072   3.28
C012  1  0.15295  0.00000  0.34003 10.50000  0.18622   3.21
C013  1  0.60068  0.25339  0.63606 11.00000  0.12122   3.16
C014  1  0.48687  0.00000  0.38377 11.00000  0.07815   3.00
HKLF 4
END
