TITL P2_expF_0_7_expS_1_5_P2_a.res in Pm
REM Old TITL P2(1)-1 in P2(1)
REM SHELXT solution in Pm: R1 0.498, Rweak 1.065, Alpha 0.258
REM <I/s>   0.000 for    0 systematic absences,  Orientation as input
REM Formula found by SHELXT:  C6 N O3

CELL  0.71073   7.0400   9.2600  11.5800   90.000   97.780   90.000
ZERR   15.000   0.0014   0.0019   0.0023    0.000    0.030    0.000
LATT -1
SYMM X, -Y, Z
SFAC C H N O
UNIT 15 15 15 15
L.S. 10
BOND
LIST 6
FMAP 2
PLAN 20
O001  4  0.07221  0.50000  0.49883 10.50000  0.00010  10.53
O002  4  0.66386  1.00000  0.29807 10.50000  0.10200   8.52
O003  4  0.37572  0.50000  0.17532 10.50000  0.00010   7.89
O004  4  0.66935  0.50000  0.99981 10.50000  0.08490   7.86
O005  4  0.24533  0.50000  0.00019 10.50000  0.03483   7.47
O006  4 -0.15194  0.50000  0.38219 10.50000  0.05227   7.47
N007  3  1.29807  1.00000  0.00532 10.50000  0.04847   6.80
C008  1  0.50691  0.52840  0.84490 11.00000  0.23373   4.63
C009  1  0.41261  0.65578  0.50122 11.00000  0.07821   4.14
C00A  1  0.20651  0.50000  0.20268 10.50000  0.00010   4.11
C00B  1  0.94367  1.00000  0.21133 10.50000  0.09838   4.07
N00C  3  0.36754  1.00000  0.54830 10.50000  0.04875   3.98
C00D  1  0.57277  0.50000  0.47580 10.50000  0.02755   3.48
C00E  1  0.21456  0.38015  0.30476 11.00000  0.07535   3.30
C00F  1  0.24941  0.50000  0.42150 10.50000  0.00010   3.24
C00G  1 -0.29807  0.50000  0.27823 10.50000  0.00010   3.22
C00H  1  0.40316  0.50000  0.65743 10.50000  0.01530   3.03
HKLF 4
END
