TITL P2_expF_0_5_expS_0_8_P2_a.res in Pm
REM Old TITL P2(1)-1 in P2(1)
REM SHELXT solution in Pm: R1 0.348, Rweak 0.850, Alpha 0.200
REM <I/s>   0.000 for    0 systematic absences,  Orientation as input
REM Formula found by SHELXT:  C25 N4 O6

CELL  0.71073   7.0400   9.2600  11.5800   90.000   97.780   90.000
ZERR   15.000   0.0014   0.0019   0.0023    0.000    0.030    0.000
LATT -1
SYMM X, -Y, Z
SFAC C H N O
UNIT 15 15 15 15
L.S. 10
BOND
LIST 6
FMAP 2
PLAN 20
C001  1  0.69517  0.00000  0.26809 10.50000  0.00010  13.64
O002  4  0.74498  0.00000  0.86320 10.50000  0.00010   9.37
O003  4  0.49252  0.50000  0.25278 10.50000  0.04049   8.71
N004  3  0.75628  0.50000  0.36461 10.50000  0.00010   8.70
O005  4  0.67419  0.00000  0.37198 10.50000  0.00010   8.51
N006  3  0.24821  0.50000  0.40105 10.50000  0.00010   8.42
O007  4  0.92620  0.50000  0.20233 10.50000  0.02598   8.40
C008  1  0.71968  0.50000  0.29644 10.50000  0.00010   7.67
C009  1  0.68343  0.00000  0.92344 10.50000  0.02316   6.34
C00A  1  0.07805  0.09267  0.34573 11.00000  0.00800   5.92
C00B  1  0.07380  0.50000  0.87281 10.50000  0.02892   5.88
C00C  1  0.60017  0.50000  0.14756 10.50000  0.00010   5.66
C00D  1  0.11754  0.00000  0.21784 10.50000  0.00010   5.56
C00E  1  0.70234  0.50000  0.07656 10.50000  0.01455   5.48
N00F  3  0.28886  0.31612  0.34400 11.00000  0.06277   5.38
C00G  1  0.60103  0.50000  0.41769 10.50000  0.00010   5.05
C00H  1  0.46257  0.00000  0.88287 10.50000  0.00580   5.00
C00I  1  0.25237  0.00000  0.27241 10.50000  0.00010   4.91
C00J  1  0.20052  0.50000  0.53335 10.50000  0.00010   4.88
C00K  1  0.25605  0.29493  0.47159 11.00000  0.16167   4.85
C00L  1  0.39008  0.35669  0.86161 11.00000  0.03189   4.43
C00M  1  0.33209  0.50000  0.81125 10.50000  0.00010   4.41
C00N  1  0.28184  0.28511  0.69664 11.00000  0.10839   4.13
C00O  1  0.43620  0.00000  0.18718 10.50000  0.00010   3.86
C00P  1  0.36376  0.05886  0.36314 11.00000  0.03550   3.75
C00Q  1  0.29047  0.50000  0.28089 10.50000  0.00010   3.55
C00R  1  0.87993  0.50000  0.48776 10.50000  0.04651   3.51
O00S  4  0.21355  0.18046  0.70676 11.00000  0.24959   3.44
HKLF 4
END
