TITL P2_expF_1_2_expS_1_3_P2_a.res in Pm
REM Old TITL P2(1)-1 in P2(1)
REM SHELXT solution in Pm: R1 0.618, Rweak 0.725, Alpha 0.212
REM <I/s>   0.000 for    0 systematic absences,  Orientation as input
REM Formula found by SHELXT:  C33 N7 O10 Cl3

CELL  0.71073   7.0400   9.2600  11.5800   90.000   97.780   90.000
ZERR   15.000   0.0014   0.0019   0.0023    0.000    0.030    0.000
LATT -1
SYMM X, -Y, Z
SFAC C H N O CL
UNIT 15 15 15 15 0
L.S. 10
BOND
LIST 6
FMAP 2
PLAN 20
CL01  5 -0.06382  0.50000  0.14639 10.50000  0.08498  17.76
CL02  5  0.10962  0.50000  0.13902 10.50000  0.11082  15.97
CL03  5  0.30121  0.50000  0.65142 10.50000  0.08892  12.35
O004  4  0.29638  0.88508  0.14130 11.00000  0.06358  10.39
O005  4  0.72292  0.84412  0.16251 11.00000  0.07273  10.37
O006  4  0.99719  1.00000  0.63004 10.50000  0.03437   8.48
O007  4  0.77824  0.73972  0.81187 11.00000  0.05400   7.72
O008  4  0.80333  1.00000  0.11501 10.50000  0.05045   7.48
N009  3  0.69171  0.58482  0.33941 11.00000  0.06356   7.37
N00A  3  0.60449  0.50000  0.45950 10.50000  0.02023   7.37
N00B  3  0.73092  0.50000  0.56647 10.50000  0.03958   7.27
N00C  3  0.80137  0.50000  0.93048 10.50000  0.02714   7.03
N00D  3  1.18955  1.00000  0.57348 10.50000  0.05118   6.55
N00E  3  0.69335  1.00000  0.51862 10.50000  0.04745   6.43
C00F  1  0.57106  1.00000  0.72822 10.50000  0.01652   6.41
C00G  1  0.83164  0.66054  0.65453 11.00000  0.02637   6.29
C00H  1  0.86108  0.65420  0.44148 11.00000  0.06437   6.28
C00I  1  0.33327  0.65884  0.31084 11.00000  0.03397   6.17
C00J  1  0.50796  0.63843  0.20808 11.00000  0.07477   6.11
C00K  1  0.51813  0.82465  0.65310 11.00000  0.06518   6.08
C00L  1  0.69943  0.66514  0.85976 11.00000  0.04507   5.75
C00M  1  0.55267  0.74879  0.14830 11.00000  0.02614   5.66
C00N  1  0.71108  0.50000  0.71032 10.50000  0.01979   5.02
O00O  4  1.01866  0.65690  0.63304 11.00000  0.08248   4.89
C00P  1 -0.18955  0.32640  0.06952 11.00000  0.03767   4.40
C00Q  1  0.39534  0.67631  0.82241 11.00000  0.04645   4.27
C00R  1  0.15872  0.70827  0.31879 11.00000  0.05308   4.18
C00S  1  0.17872  0.66312  0.48049 11.00000  0.04410   4.14
C00T  1  0.51355  0.50000  0.62171 10.50000  0.04514   3.92
C00U  1  0.22568  0.67351  0.17281 11.00000  0.04673   3.42
C00V  1  0.11540  0.83855  0.07242 11.00000  0.02699   3.42
C00W  1  0.43228  0.81282  0.81486 11.00000  0.05425   3.21
C00X  1  0.12706  0.75078  0.22323 11.00000  0.05653   3.18
HKLF 4
END
