TITL P2_expF_0_6_expS_1_3_P2_a.res in Pm
REM Old TITL P2(1)-1 in P2(1)
REM SHELXT solution in Pm: R1 0.270, Rweak 0.276, Alpha 0.136
REM <I/s>   0.000 for    0 systematic absences,  Orientation as input
REM Formula found by SHELXT:  C39 N12 O11 I

CELL  0.71073   7.0400   9.2600  11.5800   90.000   97.780   90.000
ZERR   15.000   0.0014   0.0019   0.0023    0.000    0.030    0.000
LATT -1
SYMM X, -Y, Z
SFAC C H N O I
UNIT 15 15 15 15 0
L.S. 10
BOND
LIST 6
FMAP 2
PLAN 20
I001  5  0.44962  0.00000  0.43740 10.50000  0.00068  44.29
O002  4  0.61512  0.00000 -0.06881 10.50000  0.03170  14.77
N003  3  0.83325  0.00000 -0.06462 10.50000  0.00010  12.88
N004  3  1.11466  0.00000 -0.00597 10.50000  0.00010  11.03
O005  4  0.54329  0.00000  0.03537 10.50000  0.03565   9.99
O006  4 -0.32078  0.50000  0.54009 10.50000  0.22441   9.50
O007  4  0.60607  0.00000 -0.25018 10.50000  0.05871   9.34
O008  4  1.37104  0.16635 -0.06234 11.00000  0.03132   8.66
N009  3  0.63756  0.50000  0.90142 10.50000  0.02104   8.63
O00A  4  0.30078  0.50000  0.78960 10.50000  0.07194   8.59
O00B  4 -0.08947  0.50000  0.62786 10.50000  0.17059   8.54
N00C  3  1.31844  0.00000 -0.09302 10.50000  0.04652   8.40
O00D  4  1.23722  0.50000  1.14323 10.50000  0.18041   8.14
N00E  3 -0.05765  0.50000  0.51378 10.50000  0.13652   7.86
O00F  4  1.07619  0.09465 -0.07317 11.00000  0.04671   7.81
N00G  3 -0.27943  0.50000  0.44944 10.50000  0.00010   7.28
N00H  3  1.12851  0.00000 -0.24114 10.50000  0.04691   7.14
N00I  3  0.32757  0.31737  0.49216 11.00000  0.09594   7.11
N00J  3  0.98520  0.50000  0.83934 10.50000  0.02205   7.09
C00K  1  1.10698  0.00000 -0.15199 10.50000  0.06128   7.01
N00L  3  0.17848  0.50000  0.38014 10.50000  0.01412   6.96
C00M  1  0.44992  0.38292  0.88840 11.00000  0.03957   6.57
C00N  1  0.64250  0.00000 -0.18138 10.50000  0.09921   6.56
C00O  1  0.34182  0.16859  0.57111 11.00000  0.07426   6.37
C00P  1  0.62040  0.32898  0.76668 11.00000  0.04724   6.26
C00Q  1  0.03040  0.25033  0.43113 11.00000  0.01812   6.22
C00R  1  0.95510  0.00000  0.23520 10.50000  0.04893   5.51
C00S  1  0.60439  0.11482  0.37321 11.00000  0.01555   5.48
C00T  1  1.26149  0.09987 -0.23784 11.00000  0.05350   5.33
C00U  1  0.58943  0.17142  0.25161 11.00000  0.03599   5.12
C00V  1  0.48011  0.39726  0.94498 11.00000  0.00015   4.95
C00W  1 -0.47165  0.50000  0.46659 10.50000  0.08370   4.83
C00X  1  0.74947  0.19904  0.28495 11.00000  0.05585   4.64
C00Y  1  0.56685  0.00000  0.09381 10.50000  0.01050   4.46
C00Z  1  0.55935  0.23354  0.12569 11.00000  0.04725   4.35
C010  1 -0.19693  0.39973  0.42599 11.00000  0.01276   3.86
N011  3  0.64146  0.50000  0.94543 10.50000  0.02335   3.80
C012  1  1.14504  0.50000  1.01309 10.50000  0.01325   3.79
C013  1  0.45240  0.00000  0.47788 11.00000  0.00010   3.70
C014  1  0.54509  0.22418  0.62246 11.00000  0.02717   3.67
C015  1  0.99564  0.53432  0.94535 11.00000  0.04750   3.47
C016  1  0.89725  0.00000  0.41734 10.50000  0.01888   3.42
C017  1  0.95192  0.50000  0.89372 10.50000  0.01572   3.33
C018  1  0.78499  0.00000  0.23406 10.50000  0.07940   3.27
C019  1  0.82460  0.00000 -0.17339 10.50000  0.04095   3.27
C01A  1  1.47165  0.50000  1.25018 10.50000  0.02670   3.04
HKLF 4
END
