TITL P2_expF_0_5_expS_0_9_P2_a.res in Pm
REM Old TITL P2(1)-1 in P2(1)
REM SHELXT solution in Pm: R1 0.325, Rweak 0.956, Alpha 0.197
REM <I/s>   0.000 for    0 systematic absences,  Orientation as input
REM Formula found by SHELXT:  C12 N4 O9

CELL  0.71073   7.0400   9.2600  11.5800   90.000   97.780   90.000
ZERR   15.000   0.0014   0.0019   0.0023    0.000    0.030    0.000
LATT -1
SYMM X, -Y, Z
SFAC C H N O
UNIT 15 15 15 15
L.S. 10
BOND
LIST 6
FMAP 2
PLAN 20
O001  4  0.16296  1.00000  0.67519 10.50000  0.01036  11.77
O002  4  0.28467  1.00000  0.61001 10.50000  0.00010  11.50
O003  4  0.31062  0.50000  0.32380 10.50000  0.01591  10.28
O004  4  0.59282  1.00000  0.30112 10.50000  0.00010   8.37
O005  4  0.64075  0.50000  0.69723 10.50000  0.00010   8.33
N006  3  0.36842  0.94490  0.40572 11.00000  0.30394   7.87
N007  3  0.24862  1.00000  0.30660 10.50000  0.00010   7.71
N008  3  0.26540  1.00000  0.54861 10.50000  0.00010   7.38
O009  4  0.02000  1.00000  0.38480 10.50000  0.01285   6.99
C00A  1  1.04969  0.50000  0.39607 10.50000  0.00010   6.64
C00B  1  0.80459  0.50000  0.66342 10.50000  0.01285   6.39
C00C  1  0.49189  0.50000  0.45564 10.50000  0.00010   6.06
C00D  1 -0.04969  1.00000  0.26975 10.50000  0.02457   5.45
C00E  1  0.64201  0.50000  0.36099 10.50000  0.00010   5.11
O00F  4  0.30759  0.50000  0.81531 10.50000  0.03700   4.18
C00G  1  0.05311  1.00000  0.84595 10.50000  0.00010   4.10
O00H  4  0.60832  1.00000  0.05376 10.50000  0.02972   4.09
C00I  1  0.89778  0.50000  0.32693 10.50000  0.00017   4.05
C00J  1  0.47560  0.50000  0.84574 10.50000  0.00010   4.02
O00K  4  1.03003  0.50000  0.50824 10.50000  0.00141   4.01
C00L  1  0.37178  1.00000  0.04012 10.50000  0.00897   3.62
C00M  1  0.52073  1.00000  0.37659 10.50000  0.04714   3.55
C00N  1  0.67467  0.50000  0.25225 10.50000  0.00010   3.50
C00O  1  0.20438  0.50000  0.95988 10.50000  0.00010   3.35
HKLF 4
END
