TITL P2_expF_1_3_expS_1_5_P2_a.res in Pm
REM Old TITL P2(1)-1 in P2(1)
REM SHELXT solution in Pm: R1 0.700, Rweak 0.249, Alpha 0.199
REM <I/s>   0.000 for    0 systematic absences,  Orientation as input
REM Formula found by SHELXT:  C46 N15 O6

CELL  0.71073   7.0400   9.2600  11.5800   90.000   97.780   90.000
ZERR   15.000   0.0014   0.0019   0.0023    0.000    0.030    0.000
LATT -1
SYMM X, -Y, Z
SFAC C H N O
UNIT 15 15 15 15
L.S. 10
BOND
LIST 6
FMAP 2
PLAN 20
N001  3  0.67175  0.50000  0.54824 10.50000  0.00010  11.24
N002  3  0.69072  0.50000  0.16150 10.50000  0.00010  10.56
N003  3  0.57937  0.65375  0.77508 11.00000  0.00010   9.92
C004  1  0.37931  0.50000  0.58300 10.50000  0.00010   9.87
O005  4 -0.05460  0.00000  0.15803 10.50000  0.00195   9.85
N006  3 -0.11276  1.00000  0.65400 10.50000  0.00578   9.59
O007  4  1.31805  0.50000  1.09685 10.50000  0.00010   9.39
C008  1  1.26148  0.50000  0.81752 10.50000  0.00010   9.21
N009  3 -0.38191  1.00000  0.74967 10.50000  0.07013   8.31
O00A  4  0.00543  0.00000  0.00988 10.50000  0.02243   7.81
N00B  3  0.50680  0.50000  0.51823 10.50000  0.07417   7.76
N00C  3  0.15776  0.87059  0.49104 11.00000  0.00010   7.43
C00D  1  0.66292  0.50000  0.29843 10.50000  0.00010   7.37
N00E  3  0.41729  0.65081  0.41966 11.00000  0.02876   7.27
N00F  3  0.23273  0.29026  0.15327 11.00000  0.00789   7.26
N00G  3  1.38191  0.55942  0.95081 11.00000  0.04718   6.65
C00H  1  0.63487  0.63186  0.21389 11.00000  0.00010   6.56
C00I  1  0.85717  0.50000  0.41464 10.50000  0.05179   6.40
C00J  1 -0.09422  0.28220  0.21453 11.00000  0.00045   6.38
C00K  1  0.47652  0.50000  0.27170 10.50000  0.03934   6.30
C00L  1 -0.24619  1.09983  0.70852 11.00000  0.01927   6.28
C00M  1  0.30887  0.50000  0.31753 10.50000  0.00779   6.22
C00N  1  0.96521  0.50000  0.27080 10.50000  0.13695   5.93
C00O  1  0.31904  0.56684  0.66509 11.00000  0.01362   5.92
C00P  1  0.64162  0.59157  0.65424 11.00000  0.00010   5.90
C00Q  1  1.28797  0.69193  0.86540 11.00000  0.00010   5.85
C00R  1  0.20923  0.34832  0.29692 11.00000  0.00046   5.83
C00S  1  0.81859  0.50000  0.50663 10.50000  0.00010   5.81
C00T  1  0.15915  0.20316  0.25807 11.00000  0.00010   5.76
C00U  1  0.91719  0.63807  0.88584 11.00000  0.00129   5.35
O00V  4  0.94672  0.50000  0.88105 10.50000  0.37005   5.20
C00W  1  0.35068  0.84882  0.70215 11.00000  0.00116   5.06
C00X  1  0.72787  0.66597  0.80181 11.00000  0.00010   4.85
C00Y  1  0.02840  0.90728  0.56986 11.00000  0.00010   4.50
C00Z  1  1.05169  0.79049  0.82942 11.00000  0.01715   4.22
C010  1  0.34612  1.00000  0.38396 10.50000  0.00010   3.97
C011  1  0.28828  0.00000 -0.09685 10.50000  0.00127   3.94
C012  1 -0.12800  0.84392  0.48402 11.00000  0.00010   3.84
O013  4  0.50658  0.67371  0.17421 11.00000  0.04145   3.69
C014  1  0.67020  0.58138  0.89485 11.00000  0.00010   3.42
C015  1  0.57405  0.50000  0.81951 10.50000  0.02990   3.38
C016  1 -0.31005  0.11583  0.07722 11.00000  0.00010   3.26
C017  1  0.15901  0.74497  0.59935 11.00000  0.00108   3.16
C018  1  0.06077  1.00000  0.53510 10.50000  0.04806   3.08
HKLF 4
END
