TITL SP14R08_expF_0_9_expS_1_5_SP14R08_b.res in Pn
REM Old TITL SP14R08 in P2(1)/n
REM SHELXT solution in Pn: R1 0.292, Rweak 0.021, Alpha 0.008
REM <I/s>   1.814 for  101 systematic absences,  Orientation as input
REM Formula found by SHELXT:  C14 N6 O2

CELL  0.71073   7.0200   9.2700  11.5600   90.000   97.670   90.000
ZERR   16.000   0.0014   0.0019   0.0023    0.000    0.030    0.000
LATT -1
SYMM 1/2+X, -Y, 1/2+Z
SFAC C H N O
UNIT 16 16 16 16
L.S. 10
BOND
LIST 6
FMAP 2
PLAN 20
N001  3  0.46265  0.42208  0.56257 11.00000  0.05264   7.20
N002  3  0.58330  0.60353  0.43832 11.00000  0.04338   7.15
N003  3  0.37404  1.07472  0.36856 11.00000  0.05893   7.13
N004  3  0.67699  0.76520  0.27962 11.00000  0.05474   7.06
N005  3  0.65644  0.32282  0.72158 11.00000  0.04095   7.04
N006  3  0.54303  0.69231  0.33736 11.00000  0.04830   6.98
O007  4  0.14867  0.73982  0.69378 11.00000  0.04757   6.68
C008  1  0.44415  0.50633  0.45924 11.00000  0.04382   6.35
C009  1  0.78371  0.50989  0.61072 11.00000  0.04530   6.27
C00A  1  0.24055  0.89179  0.48326 11.00000  0.04872   6.12
C00B  1  0.21985  0.98377  0.39294 11.00000  0.03860   5.90
C00C  1  0.40814  0.65203  0.82361 11.00000  0.04795   5.80
C00D  1  0.33230  1.16924  0.27707 11.00000  0.03076   5.70
C00E  1  0.43648  0.79677  0.65733 11.00000  0.03338   5.35
C00F  1  0.75809  0.60506  0.51305 11.00000  0.03564   5.18
O00G  4  0.85133  0.75174  0.31113 11.00000  0.06398   5.04
C00H  1  0.40627  0.89323  0.56154 11.00000  0.04317   4.96
C00I  1  0.53628  1.08005  0.44914 11.00000  0.04688   4.93
C00J  1  0.56104  0.97580  0.53844 11.00000  0.04392   4.89
C00K  1  0.58951  0.84946  0.17639 11.00000  0.05139   4.84
C00L  1  0.31822  0.74193  0.71865 11.00000  0.03936   4.53
C00M  1  0.63416  0.41486  0.62946 11.00000  0.03661   4.11
HKLF 4
END
