TITL SP14R08_expF_1_1_expS_1_5_SP14R08_c.res in P2(1)
REM Old TITL SP14R08 in P2(1)/n
REM SHELXT solution in P2(1): R1 0.377, Rweak 0.014, Alpha 0.031
REM <I/s>   1.318 for    6 systematic absences,  Orientation as input
REM Formula found by SHELXT:  C19 N O2

CELL  0.71073   7.0200   9.2700  11.5600   90.000   97.670   90.000
ZERR   16.000   0.0014   0.0019   0.0023    0.000    0.030    0.000
LATT -1
SYMM -X, 1/2+Y, -Z
SFAC C H N O
UNIT 16 16 16 16
L.S. 10
BOND
LIST 6
FMAP 2
PLAN 20
N001  3  0.90964  0.66872  0.47163 11.00000  0.05616   6.97
C002  1  1.03137  0.48386  0.35966 11.00000  0.05836   6.44
C003  1  0.20681  0.42336  0.80596 11.00000  0.06907   6.28
C004  1  0.19249  0.51547  0.70922 11.00000  0.06342   6.25
C005  1  0.30359  0.70266  0.58859 11.00000  0.05047   6.19
C006  1  0.83337  0.39731  0.18798 11.00000  0.05855   6.16
C007  1  0.80331  0.30206  0.09129 11.00000  0.05263   6.13
C008  1  0.71115  0.58005  0.30472 11.00000  0.06120   6.11
C009  1  0.53687  0.51270  0.85892 11.00000  0.06727   6.08
C00A  1  0.41514  0.32211  0.97265 11.00000  0.04792   6.04
C00B  1  0.33894  0.61111  0.68765 11.00000  0.05303   5.98
O00C  4  0.60425  0.74907  0.55904 11.00000  0.07221   5.92
C00D  1  0.51391  0.60775  0.76736 11.00000  0.05932   5.92
C00E  1  0.92613  0.23907  0.03116 11.00000  0.06047   5.71
C00F  1  0.88273  0.57964  0.37817 11.00000  0.05675   5.67
C00G  1  0.42677  0.76387  0.53130 11.00000  0.05992   5.55
C00H  1  0.38598  0.41929  0.88236 11.00000  0.06521   5.54
C00I  1  0.84243  0.15125 -0.07314 11.00000  0.06834   5.49
O00J  4  1.10466  0.23745  0.05886 11.00000  0.07306   5.43
C00K  1  1.01128  0.39285  0.26524 11.00000  0.05804   5.36
C00L  1  0.69155  0.47803  0.21079 11.00000  0.06180   5.34
C00M  1  0.33974  0.84875  0.42717 11.00000  0.06649   4.74
HKLF 4
END
