TITL SP14R08_expF_0_6_expS_0_5_SP14R08_b.res in Pm
REM Old TITL SP14R08 in P2(1)/n
REM SHELXT solution in Pm: R1 0.163, Rweak 0.503, Alpha 0.001
REM <I/s>   0.000 for    0 systematic absences,  Orientation as input
REM Formula found by SHELXT:  C25 N3 O16 I

CELL  0.71073   7.0200   9.2700  11.5600   90.000   97.670   90.000
ZERR   16.000   0.0014   0.0019   0.0023    0.000    0.030    0.000
LATT -1
SYMM X, -Y, Z
SFAC C H N O I
UNIT 16 16 16 16 0
L.S. 10
BOND
LIST 6
FMAP 2
PLAN 20
I001  5  0.75361  0.50000  0.60368 10.50000  0.00010 180.78
O002  4  0.97106  1.00000  0.66978 10.50000  0.01583  15.16
C003  1  0.25625  0.00000  0.10497 10.50000  0.02572  12.66
O004  4  0.46691  1.00000  0.46405 10.50000  0.37450  11.83
O005  4  0.05494  0.00000  0.06065 10.50000  0.10919  10.12
O006  4  0.27510  0.50000  0.19644 10.50000  0.05060   9.96
O007  4  0.24693  0.18115  0.10555 11.00000  0.08594   9.89
C008  1  0.64035  0.68546  0.72411 11.00000  0.01355   9.71
O009  4  0.24758  0.31473  0.10738 11.00000  0.09087   9.63
O00A  4  0.24935  0.50000  0.08829 10.50000  0.11023   9.31
O00B  4  0.74681  0.33061  0.48675 11.00000  0.23834   9.22
O00C  4  1.01726  0.70181  0.91470 11.00000  0.22793   7.60
C00D  1  0.14054  0.50000  0.22578 10.50000  0.05447   7.48
O00E  4 -0.01726  0.50000  0.22289 10.50000  0.12277   6.83
N00F  3  0.40038  0.50000  0.93935 10.50000  0.27266   6.74
C00G  1  0.43329  0.41625  0.26280 11.00000  0.10820   6.49
C00H  1  0.47326  0.37345  0.15706 11.00000  0.07341   6.18
C00I  1  0.40344  0.50000  0.44640 10.50000  0.06974   6.16
C00J  1  0.56074  0.40710  0.43137 11.00000  0.02746   5.94
C00K  1  0.44317  0.60096  0.53716 11.00000  0.08680   5.91
C00L  1  0.71138  1.00000  0.51604 10.50000  0.04450   5.87
C00M  1  0.84308  0.83633  0.78412 11.00000  0.05882   5.66
O00N  4  0.67923  0.69522  0.84760 11.00000  0.36315   5.59
C00O  1  0.89126  0.19528  0.41463 11.00000  0.13586   5.47
N00P  3  0.46904  0.54291  0.64890 11.00000  0.38585   5.46
C00Q  1  0.30584  0.61712  0.82505 11.00000  0.17874   5.41
C00R  1  0.29837  0.50000  0.72292 10.50000  0.20030   5.10
C00S  1  0.46032  0.79172  0.70135 11.00000  0.11007   5.06
C00T  1  0.08448  0.71585  0.67305 11.00000  0.11031   4.70
HKLF 4
END
