TITL SP14R08_expF_0_9_expS_1_1_SP14R08_a.res in P2(1)/n
REM Old TITL SP14R08 in P2(1)/n
REM SHELXT solution in P2(1)/n: R1 0.269, Rweak 0.063, Alpha 0.143
REM <I/s>   1.391 for  107 systematic absences,  Orientation as input
REM Formula found by SHELXT:  C9 N O

CELL  0.71073   7.0200   9.2700  11.5600   90.000   97.670   90.000
ZERR   16.000   0.0014   0.0019   0.0023    0.000    0.030    0.000
LATT  1
SYMM 1/2-X, 1/2+Y, 1/2-Z
SFAC C H N O
UNIT 16 16 16 16
L.S. 10
BOND
LIST 6
FMAP 2
PLAN 20
N001  3  0.44916  0.55065  0.66103 11.00000  0.02925   6.55
C002  1  0.33569  0.92557  0.27811 11.00000  0.01865   6.33
C003  1  0.32102  0.48817  0.72105 11.00000  0.02243   6.31
O004  4  0.14962  0.49359  0.69145 11.00000  0.03934   6.24
C005  1  0.21770  0.73614  0.39016 11.00000  0.02517   6.05
C006  1  0.41194  0.64324  0.56155 11.00000  0.02458   5.90
C007  1  0.36695  0.82897  0.36969 11.00000  0.02575   5.87
C008  1  0.24108  0.64321  0.48530 11.00000  0.02485   5.68
C009  1  0.53840  0.82900  0.44445 11.00000  0.02940   5.65
C00A  1  0.56097  0.73550  0.54078 11.00000  0.02747   5.52
C00B  1  0.40803  0.39903  0.82330 11.00000  0.02672   5.37
HKLF 4
END
