TITL SP14R08_expF_1_5_expS_1_2_SP14R08_a.res in P2(1)/n
REM Old TITL SP14R08 in P2(1)/n
REM SHELXT solution in P2(1)/n: R1 0.435, Rweak 0.016, Alpha 0.017
REM <I/s>   2.053 for  107 systematic absences,  Orientation as input
REM Formula found by SHELXT:  C9 N O

CELL  0.71073   7.0200   9.2700  11.5600   90.000   97.670   90.000
ZERR   16.000   0.0014   0.0019   0.0023    0.000    0.030    0.000
LATT  1
SYMM 1/2-X, 1/2+Y, 1/2-Z
SFAC C H N O
UNIT 16 16 16 16
L.S. 10
BOND
LIST 6
FMAP 2
PLAN 20
N001  3  0.34053  0.92493  0.27407 11.00000  0.06538   6.69
C002  1  0.21128  0.73598  0.39110 11.00000  0.07830   6.26
C003  1  0.44248  0.54828  0.66106 11.00000  0.05327   6.25
C004  1  0.53674  0.83172  0.44648 11.00000  0.06241   6.22
C005  1  0.41939  0.64078  0.56093 11.00000  0.07310   6.12
C006  1  0.55359  0.73541  0.54181 11.00000  0.07621   5.81
C007  1  0.31646  0.48969  0.71955 11.00000  0.06440   5.79
C008  1  0.24175  0.64317  0.48544 11.00000  0.05376   5.79
C009  1  0.36570  0.83084  0.37045 11.00000  0.07079   5.76
O00A  4  0.14373  0.49209  0.69219 11.00000  0.07998   5.75
C00B  1  0.40717  0.39753  0.82453 11.00000  0.06550   5.26
HKLF 4
END
