TITL SP14R08_expF_1_3_expS_1_4_SP14R08_a.res in P2(1)/n
REM Old TITL SP14R08 in P2(1)/n
REM SHELXT solution in P2(1)/n: R1 0.426, Rweak 0.019, Alpha 0.014
REM <I/s>   2.278 for  107 systematic absences,  Orientation as input
REM Formula found by SHELXT:  C9 N O

CELL  0.71073   7.0200   9.2700  11.5600   90.000   97.670   90.000
ZERR   16.000   0.0014   0.0019   0.0023    0.000    0.030    0.000
LATT  1
SYMM 1/2-X, 1/2+Y, 1/2-Z
SFAC C H N O
UNIT 16 16 16 16
L.S. 10
BOND
LIST 6
FMAP 2
PLAN 20
N001  3  0.66073  0.92327  0.72474 11.00000  0.07664   6.70
C002  1  0.78333  0.73817  0.60955 11.00000  0.07687   6.26
C003  1  0.55177  0.55139  0.34014 11.00000  0.06515   6.25
C004  1  0.46247  0.83093  0.55790 11.00000  0.08588   6.23
C005  1  0.59390  0.64401  0.43434 11.00000  0.06599   6.12
C006  1  0.44201  0.73737  0.45828 11.00000  0.07145   5.81
C007  1  0.75851  0.63782  0.51686 11.00000  0.07652   5.79
C008  1  0.67976  0.48857  0.28160 11.00000  0.07235   5.77
C009  1  0.62654  0.83116  0.63024 11.00000  0.07010   5.77
O00A  4  0.85669  0.49820  0.31070 11.00000  0.08616   5.73
C00B  1  0.59052  0.39954  0.17879 11.00000  0.08809   5.26
HKLF 4
END
