TITL SP14R08_expF_0_7_expS_1_2_SP14R08_c.res in P2(1)
REM Old TITL SP14R08 in P2(1)/n
REM SHELXT solution in P2(1): R1 0.241, Rweak 0.101, Alpha 0.175
REM <I/s>   1.973 for    6 systematic absences,  Orientation as input
REM Formula found by SHELXT:  C16 N3 O3

CELL  0.71073   7.0200   9.2700  11.5600   90.000   97.670   90.000
ZERR   16.000   0.0014   0.0019   0.0023    0.000    0.030    0.000
LATT -1
SYMM -X, 1/2+Y, -Z
SFAC C H N O
UNIT 16 16 16 16
L.S. 10
BOND
LIST 6
FMAP 2
PLAN 20
O001  4  0.58876  0.65988  0.02109 11.00000  0.02414   8.04
C002  1  0.07989  0.75563  0.97006 11.00000  0.02166   7.97
N003  3  0.46118  0.48874  0.13656 11.00000  0.02924   6.97
N004  3  0.16636  0.59665  0.80488 11.00000  0.01970   6.69
O005  4 -0.09453  0.75391  0.94216 11.00000  0.03428   6.54
N006  3  0.15449  0.85067  1.06927 11.00000  0.02576   6.50
O007  4  0.39051  0.24259  0.44001 11.00000  0.02972   6.46
C008  1  0.11972  0.42488  0.61825 11.00000  0.01366   6.44
C009  1  0.31275  0.49950  0.79588 11.00000  0.01780   6.36
C00A  1  0.69758  0.29531  0.40815 11.00000  0.01583   6.30
C00B  1  0.29527  0.40542  0.70068 11.00000  0.01828   6.27
C00C  1  0.19926  0.69413  0.91242 11.00000  0.01877   6.24
C00D  1  0.48846  0.39270  0.23833 11.00000  0.02018   5.83
C00E  1 -0.00641  0.60750  0.73194 11.00000  0.01852   5.77
C00F  1 -0.02355  0.51822  0.64253 11.00000  0.02157   5.35
C00G  1  0.78248  0.56285  0.18716 11.00000  0.02675   5.21
C00H  1  0.65713  0.38163  0.31901 11.00000  0.02354   5.06
C00I  1  0.61420  0.58645  0.12243 11.00000  0.02547   4.81
C00J  1  0.80920  0.46877  0.28384 11.00000  0.02459   4.80
C00K  1  0.66032  0.14933  0.57834 11.00000  0.02480   4.40
C00L  1  0.08352  0.30548  0.53505 11.00000  0.01791   4.39
C00M  1  0.56328  0.23123  0.47068 11.00000  0.01425   3.94
HKLF 4
END
