TITL SP14R08_expF_0_9_expS_0_8_SP14R08_a.res in Pn
REM Old TITL SP14R08 in P2(1)/n
REM SHELXT solution in Pn: R1 0.244, Rweak 0.153, Alpha 0.147
REM <I/s>   1.112 for  101 systematic absences,  Orientation as input
REM Formula found by SHELXT:  C7 N4 O8

CELL  0.71073   7.0200   9.2700  11.5600   90.000   97.670   90.000
ZERR   16.000   0.0014   0.0019   0.0023    0.000    0.030    0.000
LATT -1
SYMM 1/2+X, -Y, 1/2+Z
SFAC C H N O
UNIT 16 16 16 16
L.S. 10
BOND
LIST 6
FMAP 2
PLAN 20
N001  3  0.14361  0.58261  0.63058 11.00000  0.00010   9.64
O002  4  0.25959  0.39086  0.51598 11.00000  0.00256   9.42
O003  4 -0.05506  0.48471  0.45865 11.00000  0.00347   8.95
O004  4  0.91168  0.10654  0.56006 11.00000  0.00631   8.79
O005  4  0.90260  0.34565  0.82403 11.00000  0.03489   8.33
O006  4  0.05060  0.31297  0.33234 11.00000  0.02429   7.99
O007  4  0.35558  0.23994  0.30711 11.00000  0.01295   7.96
N008  3  0.80965  0.25860  0.72430 11.00000  0.01259   7.75
O009  4  0.15952  0.67831  0.71804 11.00000  0.02468   7.39
C00A  1  1.05506 -0.07434  0.44377 11.00000  0.02294   6.98
N00B  3  0.94749  0.20687  0.65562 11.00000  0.00986   6.90
N00C  3  0.28416  0.48766  0.61246 11.00000  0.02327   6.58
O00D  4  0.65575  0.25095  0.68652 11.00000  0.02454   6.08
C00E  1  0.71963  0.01804  0.38982 11.00000  0.00870   5.87
C00F  1  0.83176 -0.17468  0.27412 11.00000  0.00637   5.82
C00G  1  0.17218  0.23432  0.28395 11.00000  0.00678   5.42
C00H  1 -0.03446  0.58298  0.55515 11.00000  0.01052   4.70
C00I  1  0.08994  0.14597  0.17597 11.00000  0.00386   4.37
C00J  1  0.88708 -0.07082  0.36646 11.00000  0.03046   3.81
HKLF 4
END
