TITL SP14R08_expF_0_6_expS_1_5_SP14R08_c.res in P2(1)
REM Old TITL SP14R08 in P2(1)/n
REM SHELXT solution in P2(1): R1 0.242, Rweak 0.080, Alpha 0.108
REM <I/s>   2.108 for    6 systematic absences,  Orientation as input
REM Formula found by SHELXT:  C17 N2 O3

CELL  0.71073   7.0200   9.2700  11.5600   90.000   97.670   90.000
ZERR   16.000   0.0014   0.0019   0.0023    0.000    0.030    0.000
LATT -1
SYMM -X, 1/2+Y, -Z
SFAC C H N O
UNIT 16 16 16 16
L.S. 10
BOND
LIST 6
FMAP 2
PLAN 20
O001  4  0.30012  0.70480  0.59232 11.00000  0.03147   7.57
N002  3  0.38007  0.43729  0.87868 11.00000  0.03422   7.16
N003  3  0.41172  0.33946  0.97443 11.00000  0.01335   6.55
C004  1  1.10430  0.24372  0.06464 11.00000  0.02464   6.48
C005  1  0.33455  0.85184  0.42575 11.00000  0.02564   6.40
C006  1  0.33615  0.61391  0.68375 11.00000  0.01878   6.39
C007  1  0.53356  0.52197  0.85851 11.00000  0.03001   6.24
C008  1  0.43078  0.77436  0.53410 11.00000  0.01685   6.02
C009  1  1.01551  0.40706  0.26483 11.00000  0.01807   6.00
C00A  1  0.20516  0.42857  0.80814 11.00000  0.02623   5.94
C00B  1  0.18873  0.53725  0.71103 11.00000  0.02539   5.15
C00C  1  0.69244  0.50745  0.20693 11.00000  0.02628   5.08
C00D  1  0.92857  0.25175  0.02519 11.00000  0.03164   4.82
C00E  1  1.02785  0.49187  0.36192 11.00000  0.02409   4.81
O00F  4  0.59799  0.75935  0.55522 11.00000  0.02699   4.74
C00G  1  0.84287  0.40019  0.19437 11.00000  0.03097   4.69
O00H  4  0.91619  0.69337  0.46778 11.00000  0.05917   4.60
C00I  1  0.71621  0.58537  0.30188 11.00000  0.03184   4.56
C00J  1  0.80307  0.30473  0.08632 11.00000  0.02698   4.09
C00K  1  0.49947  0.62079  0.76357 11.00000  0.03028   3.92
C00L  1  0.88734  0.59739  0.38192 11.00000  0.02411   3.29
C00M  1  0.85044  0.14816 -0.07128 11.00000  0.02546   3.27
HKLF 4
END
