TITL SP14R08_expF_1_3_expS_1_3_SP14R08_b.res in Pn
REM Old TITL SP14R08 in P2(1)/n
REM SHELXT solution in Pn: R1 0.372, Rweak 0.013, Alpha 0.003
REM <I/s>   2.036 for  101 systematic absences,  Orientation as input
REM Formula found by SHELXT:  C15 N5 O3

CELL  0.71073   7.0200   9.2700  11.5600   90.000   97.670   90.000
ZERR   16.000   0.0014   0.0019   0.0023    0.000    0.030    0.000
LATT -1
SYMM 1/2+X, -Y, 1/2+Z
SFAC C H N O
UNIT 16 16 16 16
L.S. 10
BOND
LIST 6
FMAP 2
PLAN 20
N001  3  0.55211 -0.19614  0.34079 11.00000  0.06204   7.37
N002  3  0.33752  0.32526  0.27783 11.00000  0.06273   7.09
C003  1  0.46087  0.08100  0.55427 11.00000  0.06479   7.06
N004  3  0.58759 -0.10683  0.43864 11.00000  0.06461   7.00
N005  3  0.21900  0.51460  0.39146 11.00000  0.08835   6.58
C006  1  0.36129  0.41942  0.36937 11.00000  0.05753   6.53
N007  3  0.66537  0.17186  0.72436 11.00000  0.05792   6.51
C008  1  0.78373 -0.01091  0.60867 11.00000  0.05422   6.43
C009  1  0.67467 -0.25922  0.27996 11.00000  0.05687   6.29
O00A  4  0.14593  0.75709  0.69197 11.00000  0.07443   6.15
C00B  1  0.44190 -0.01599  0.45731 11.00000  0.06374   6.12
C00C  1  0.23430  0.60902  0.48355 11.00000  0.05768   6.07
C00D  1  0.53820  0.42182  0.44125 11.00000  0.06623   5.89
C00E  1  0.56156  0.51639  0.54015 11.00000  0.05797   5.59
C00F  1  0.75286 -0.10612  0.51239 11.00000  0.06197   5.58
O00G  4  0.85407 -0.25228  0.30832 11.00000  0.06962   5.57
C00H  1  0.31977  0.76762  0.71744 11.00000  0.06421   5.48
C00I  1  0.41046  0.60835  0.56144 11.00000  0.06259   5.45
C00J  1  0.58863 -0.34761  0.17748 11.00000  0.06967   5.45
C00K  1  0.44870  0.70334  0.66206 11.00000  0.05281   5.28
C00L  1  0.40543  0.85496  0.82252 11.00000  0.06727   4.88
C00M  1  0.62984  0.08073  0.63024 11.00000  0.06249   4.77
O00N  4  0.42508  0.20899  0.59836 11.00000  0.41763   3.00
HKLF 4
END
