TITL SP14R08_expF_0_8_expS_1_5_SP14R08_a.res in P2(1)/n
REM Old TITL SP14R08 in P2(1)/n
REM SHELXT solution in P2(1)/n: R1 0.283, Rweak 0.030, Alpha 0.068
REM <I/s>   1.636 for  107 systematic absences,  Orientation as input
REM Formula found by SHELXT:  C10 O

CELL  0.71073   7.0200   9.2700  11.5600   90.000   97.670   90.000
ZERR   16.000   0.0014   0.0019   0.0023    0.000    0.030    0.000
LATT  1
SYMM 1/2-X, 1/2+Y, 1/2-Z
SFAC C H N O
UNIT 16 16 16 16
L.S. 10
BOND
LIST 6
FMAP 2
PLAN 20
C001  1  0.44873  0.55198  0.65999 11.00000  0.02973   6.46
C002  1  0.33795  0.92376  0.27812 11.00000  0.02641   6.38
O003  4  0.14838  0.49442  0.69153 11.00000  0.05161   6.13
C004  1  0.32067  0.48724  0.72101 11.00000  0.03376   6.08
C005  1  0.21730  0.73778  0.39081 11.00000  0.03453   6.06
C006  1  0.41198  0.64411  0.56147 11.00000  0.03322   6.00
C007  1  0.53740  0.82991  0.44376 11.00000  0.03897   5.84
C008  1  0.36698  0.83056  0.36992 11.00000  0.03465   5.82
C009  1  0.24025  0.64254  0.48558 11.00000  0.03479   5.73
C00A  1  0.56015  0.73514  0.53956 11.00000  0.03736   5.61
C00B  1  0.40832  0.40041  0.82322 11.00000  0.03763   5.43
HKLF 4
END
