TITL SP14R08_expF_0_7_expS_1_3_SP14R08_a.res in P2(1)/n
REM Old TITL SP14R08 in P2(1)/n
REM SHELXT solution in P2(1)/n: R1 0.274, Rweak 0.088, Alpha 0.147
REM <I/s>   1.311 for  107 systematic absences,  Orientation as input
REM Formula found by SHELXT:  C9 N O

CELL  0.71073   7.0200   9.2700  11.5600   90.000   97.670   90.000
ZERR   16.000   0.0014   0.0019   0.0023    0.000    0.030    0.000
LATT  1
SYMM 1/2-X, 1/2+Y, 1/2-Z
SFAC C H N O
UNIT 16 16 16 16
L.S. 10
BOND
LIST 6
FMAP 2
PLAN 20
N001  3  0.44892  0.55051  0.66112 11.00000  0.02548   6.65
O002  4  0.14955  0.49355  0.69130 11.00000  0.03427   6.35
C003  1  0.32083  0.48796  0.72101 11.00000  0.01925   6.29
C004  1  0.33512  0.92586  0.27823 11.00000  0.01595   6.22
C005  1  0.41182  0.64297  0.56164 11.00000  0.02181   6.03
C006  1  0.21796  0.73595  0.38978 11.00000  0.02158   5.96
C007  1  0.36723  0.82886  0.36988 11.00000  0.02257   5.92
C008  1  0.56124  0.73559  0.54081 11.00000  0.02400   5.59
C009  1  0.53917  0.82887  0.44468 11.00000  0.02601   5.57
C00A  1  0.40789  0.39915  0.82323 11.00000  0.02242   5.50
C00B  1  0.24109  0.64289  0.48517 11.00000  0.02157   5.50
HKLF 4
END
