TITL SP14R08_expF_0_7_expS_1_2_SP14R08_a.res in P2(1)/n
REM Old TITL SP14R08 in P2(1)/n
REM SHELXT solution in P2(1)/n: R1 0.282, Rweak 0.114, Alpha 0.147
REM <I/s>   1.241 for  107 systematic absences,  Orientation as input
REM Formula found by SHELXT:  C9 N O

CELL  0.71073   7.0200   9.2700  11.5600   90.000   97.670   90.000
ZERR   16.000   0.0014   0.0019   0.0023    0.000    0.030    0.000
LATT  1
SYMM 1/2-X, 1/2+Y, 1/2-Z
SFAC C H N O
UNIT 16 16 16 16
L.S. 10
BOND
LIST 6
FMAP 2
PLAN 20
N001  3  0.44866  0.55035  0.66122 11.00000  0.02214   6.55
O002  4  0.14946  0.49347  0.69115 11.00000  0.02953   6.37
C003  1  0.33450  0.92616  0.27835 11.00000  0.01353   6.20
C004  1  0.32056  0.48770  0.72091 11.00000  0.01651   6.16
C005  1  0.41167  0.64273  0.56176 11.00000  0.01925   5.98
C006  1  0.36747  0.82880  0.37011 11.00000  0.01970   5.85
C007  1  0.21819  0.73581  0.38942 11.00000  0.01838   5.81
C008  1  0.24109  0.64256  0.48503 11.00000  0.01860   5.64
C009  1  0.40777  0.39925  0.82312 11.00000  0.01861   5.47
C00A  1  0.53999  0.82876  0.44493 11.00000  0.02308   5.45
C00B  1  0.56144  0.73563  0.54081 11.00000  0.02095   5.34
HKLF 4
END
