TITL SP14R08_expF_0_6_expS_1_1_SP14R08_b.res in P2(1)
REM Old TITL SP14R08 in P2(1)/n
REM SHELXT solution in P2(1): R1 0.254, Rweak 0.211, Alpha 0.265
REM <I/s>   1.609 for    6 systematic absences,  Orientation as input
REM Formula found by SHELXT:  C12 N2 O7

CELL  0.71073   7.0200   9.2700  11.5600   90.000   97.670   90.000
ZERR   16.000   0.0014   0.0019   0.0023    0.000    0.030    0.000
LATT -1
SYMM -X, 1/2+Y, -Z
SFAC C H N O
UNIT 16 16 16 16
L.S. 10
BOND
LIST 6
FMAP 2
PLAN 20
O001  4  0.29311  0.41757  0.69696 11.00000  0.00124   9.42
O002  4  0.38802  0.23899  0.43700 11.00000  0.01503   8.32
O003  4  0.19483  0.69498  0.91122 11.00000  0.02587   8.28
O004  4  0.30874  0.51870  0.79398 11.00000  0.01549   8.27
O005  4  0.15994  0.85148  1.07499 11.00000  0.02015   8.01
C006  1  0.61497  0.58282  0.12038 11.00000  0.01533   7.39
C007  1  0.56843  0.23759  0.47157 11.00000  0.00327   7.06
O008  4  0.58649  0.65952  0.02341 11.00000  0.00297   6.89
N009  3  0.64235  0.39264  0.31322 11.00000  0.02066   6.77
N00A  3  0.45848  0.48215  0.13929 11.00000  0.02242   6.77
C00B  1 -0.00892  0.59117  0.73781 11.00000  0.01162   6.11
C00C  1  0.49410  0.38187  0.23363 11.00000  0.00087   6.11
C00D  1  0.06967  0.76643  0.96732 11.00000  0.01008   6.06
C00E  1  0.17685  0.60751  0.80951 11.00000  0.00010   5.98
C00F  1 -0.02756  0.50795  0.63959 11.00000  0.00775   5.78
C00G  1  0.08255  0.29758  0.53663 11.00000  0.01779   5.63
O00H  4 -0.09156  0.75424  0.94305 11.00000  0.01712   5.25
C00I  1  0.69853  0.29617  0.41057 11.00000  0.00305   5.00
C00J  1  0.12006  0.42213  0.61960 11.00000  0.00433   4.81
C00K  1  0.64850  0.14852  0.56775 11.00000  0.02125   4.10
C00L  1  0.81477  0.49177  0.28612 11.00000  0.02558   3.67
HKLF 4
END
