TITL SP14R08_expF_1_2_expS_0_7_SP14R08_b.res in Pn
REM Old TITL SP14R08 in P2(1)/n
REM SHELXT solution in Pn: R1 0.251, Rweak 0.104, Alpha 0.071
REM <I/s>   1.196 for  101 systematic absences,  Orientation as input
REM Formula found by SHELXT:  C11 N5 O4

CELL  0.71073   7.0200   9.2700  11.5600   90.000   97.670   90.000
ZERR   16.000   0.0014   0.0019   0.0023    0.000    0.030    0.000
LATT -1
SYMM 1/2+X, -Y, 1/2+Z
SFAC C H N O
UNIT 16 16 16 16
L.S. 10
BOND
LIST 6
FMAP 2
PLAN 20
N001  3  0.36122  1.08068  0.37173 11.00000  0.00503  10.48
C002  1  0.67395  0.76382  0.28275 11.00000  0.00010  10.09
O003  4  0.45031  0.80044  0.66640 11.00000  0.02619   8.17
N004  3  0.58326  0.60417  0.44162 11.00000  0.02903   8.13
O005  4  0.55547  0.99713  0.54573 11.00000  0.02795   8.00
O006  4  0.22696  0.89384  0.48428 11.00000  0.03875   7.83
N007  3  0.33253  1.17211  0.27343 11.00000  0.02642   7.14
N008  3  0.21527  0.98822  0.39275 11.00000  0.02705   6.96
O009  4  0.84994  0.75031  0.31365 11.00000  0.02196   6.87
N00A  3  0.45227  0.42614  0.56145 11.00000  0.03699   6.52
C00B  1  0.40489  0.64830  0.82429 11.00000  0.01259   6.17
C00C  1  0.15006  0.73622  0.69578 11.00000  0.02046   6.17
C00D  1  0.66311  0.32498  0.71931 11.00000  0.01144   5.78
C00E  1  0.78560  0.51335  0.61196 11.00000  0.02243   5.72
C00F  1  0.58817  0.84706  0.17571 11.00000  0.03810   5.21
C00G  1  0.55347  0.70138  0.34638 11.00000  0.02492   4.89
C00H  1  0.52593  1.08744  0.45211 11.00000  0.02651   4.46
C00I  1  0.74292  0.60894  0.51472 11.00000  0.02373   4.12
C00J  1  0.41078  0.88823  0.56222 11.00000  0.02585   3.54
C00K  1  0.43242  0.53224  0.46517 11.00000  0.02625   3.54
HKLF 4
END
