TITL SP14R08_expF_0_7_expS_0_6_SP14R08_a.res in Pn
REM Old TITL SP14R08 in P2(1)/n
REM SHELXT solution in Pn: R1 0.292, Rweak 0.492, Alpha 0.227
REM <I/s>   0.986 for   97 systematic absences,  Orientation as input
REM Formula found by SHELXT:  C8 N O7

CELL  0.71073   7.0200   9.2700  11.5600   90.000   97.670   90.000
ZERR   16.000   0.0014   0.0019   0.0023    0.000    0.030    0.000
LATT -1
SYMM 1/2+X, -Y, 1/2+Z
SFAC C H N O
UNIT 16 16 16 16
L.S. 10
BOND
LIST 6
FMAP 2
PLAN 20
O001  4  0.67495  0.60456  0.25315 11.00000  0.00010  10.77
O002  4  0.41732 -0.17229  0.91566 11.00000  0.00010   9.05
O003  4  0.39338 -0.07291  0.82528 11.00000  0.00010   8.35
C004  1  0.44876  0.26848  0.48140 11.00000  0.00010   8.28
O005  4  0.80199  0.41408  0.14148 11.00000  0.00268   8.23
O006  4  0.40305  0.75505  0.38318 11.00000  0.00646   8.12
O007  4  0.69945  0.70681  0.34597 11.00000  0.00466   8.05
O008  4  0.19801  0.01378  0.65129 11.00000  0.00348   7.62
N009  3  0.48698  0.51531  0.08434 11.00000  0.00036   7.06
C00A  1  0.67661  0.85525  0.52294 11.00000  0.00010   6.41
C00B  1  0.49289  0.57258  0.17279 11.00000  0.00229   5.71
C00C  1  0.30595  0.18770  0.52350 11.00000  0.00464   5.68
C00D  1  0.36692  0.34875  0.37916 11.00000  0.00010   5.36
C00E  1  0.60652  0.25426  0.50705 11.00000  0.00010   5.13
C00F  1  0.57762  0.76418  0.41753 11.00000  0.00489   4.70
C00G  1  0.52694  0.11449  0.70050 11.00000  0.00010   4.17
HKLF 4
END
