TITL SP14R08_expF_1_1_expS_1_4_SP14R08_a.res in P2(1)/n
REM Old TITL SP14R08 in P2(1)/n
REM SHELXT solution in P2(1)/n: R1 0.395, Rweak 0.017, Alpha 0.026
REM <I/s>   1.754 for  107 systematic absences,  Orientation as input
REM Formula found by SHELXT:  C9 N O

CELL  0.71073   7.0200   9.2700  11.5600   90.000   97.670   90.000
ZERR   16.000   0.0014   0.0019   0.0023    0.000    0.030    0.000
LATT  1
SYMM 1/2-X, 1/2+Y, 1/2-Z
SFAC C H N O
UNIT 16 16 16 16
L.S. 10
BOND
LIST 6
FMAP 2
PLAN 20
N001  3  0.66092  0.92486  0.72275 11.00000  0.04112   6.56
C002  1  0.55213  0.55306  0.34046 11.00000  0.03590   6.35
C003  1  0.78161  0.73611  0.60861 11.00000  0.04396   6.18
C004  1  0.46031  0.82897  0.55714 11.00000  0.04686   6.12
C005  1  0.58698  0.64331  0.43792 11.00000  0.03884   6.11
C006  1  0.67931  0.48653  0.28039 11.00000  0.04358   5.90
O007  4  0.85557  0.49413  0.30842 11.00000  0.05518   5.89
C008  1  0.75997  0.64213  0.51525 11.00000  0.04025   5.81
C009  1  0.63258  0.83121  0.62979 11.00000  0.04153   5.79
C00A  1  0.44048  0.73430  0.46151 11.00000  0.04665   5.74
C00B  1  0.58820  0.40038  0.17630 11.00000  0.04844   5.31
HKLF 4
END
