TITL SP14R08_expF_1_5_expS_1_2_SP14R08_c.res in P2(1)
REM Old TITL SP14R08 in P2(1)/n
REM SHELXT solution in P2(1): R1 0.410, Rweak 0.011, Alpha 0.022
REM <I/s>   0.890 for    6 systematic absences,  Orientation as input
REM Formula found by SHELXT:  C17 N3 O2

CELL  0.71073   7.0200   9.2700  11.5600   90.000   97.670   90.000
ZERR   16.000   0.0014   0.0019   0.0023    0.000    0.030    0.000
LATT -1
SYMM -X, 1/2+Y, -Z
SFAC C H N O
UNIT 16 16 16 16
L.S. 10
BOND
LIST 6
FMAP 2
PLAN 20
N001  3  0.78815  0.42012  0.19473 11.00000  0.09048   6.70
N002  3  0.58659  0.32891  0.02547 11.00000  0.07280   6.68
N003  3  0.08697  0.67718  0.52618 11.00000  0.07530   6.51
C004  1  0.19611  0.30471  0.91162 11.00000  0.06164   6.45
C005  1  0.16814  0.39094  0.81129 11.00000  0.07143   6.40
C006  1  0.46467  0.51908  0.14198 11.00000  0.08205   6.39
C007  1 -0.03509  0.48955  0.64299 11.00000  0.08369   6.28
C008  1  0.69372  0.70660  0.40945 11.00000  0.06401   5.98
C009  1  0.28636  0.57840  0.69494 11.00000  0.06958   5.94
C00A  1  0.30608  0.48974  0.79029 11.00000  0.07920   5.91
C00B  1  0.67126  0.61000  0.31088 11.00000  0.08033   5.88
C00C  1  0.49191  0.60801  0.23428 11.00000  0.06534   5.87
C00D  1  0.11730  0.58313  0.62117 11.00000  0.08007   5.82
C00E  1  0.80244  0.51907  0.29089 11.00000  0.07614   5.76
O00F  4 -0.10384  0.24488  0.94140 11.00000  0.09038   5.71
O00G  4  0.39455  0.75834  0.44177 11.00000  0.08534   5.64
C00H  1  0.06894  0.23441  0.96777 11.00000  0.07282   5.61
C00I  1  0.15597  0.14750  1.07391 11.00000  0.07414   5.55
C00J  1  0.56833  0.75444  0.47039 11.00000  0.07762   5.52
C00K  1 -0.00935  0.39501  0.73445 11.00000  0.06984   5.49
C00L  1  0.61384  0.41923  0.12090 11.00000  0.07277   5.47
C00M  1  0.65845  0.85250  0.57449 11.00000  0.07965   4.62
HKLF 4
END
