TITL SP14R08_expF_1_5_expS_1_1_SP14R08_a.res in P2(1)/n
REM Old TITL SP14R08 in P2(1)/n
REM SHELXT solution in P2(1)/n: R1 0.395, Rweak 0.007, Alpha 0.027
REM <I/s>   1.971 for  107 systematic absences,  Orientation as input
REM Formula found by SHELXT:  C9 N O

CELL  0.71073   7.0200   9.2700  11.5600   90.000   97.670   90.000
ZERR   16.000   0.0014   0.0019   0.0023    0.000    0.030    0.000
LATT  1
SYMM 1/2-X, 1/2+Y, 1/2-Z
SFAC C H N O
UNIT 16 16 16 16
L.S. 10
BOND
LIST 6
FMAP 2
PLAN 20
N001  3  0.66317  0.07339  0.72269 11.00000  0.05754   6.64
C002  1  0.55257  0.45128  0.33967 11.00000  0.05017   6.34
C003  1  0.78594  0.26367  0.60920 11.00000  0.06230   6.24
C004  1  0.45727  0.17215  0.55760 11.00000  0.06461   6.15
C005  1  0.58587  0.35931  0.43554 11.00000  0.05200   6.10
C006  1  0.67495  0.51055  0.27938 11.00000  0.05725   5.84
O007  4  0.85577  0.50572  0.30873 11.00000  0.07406   5.84
C008  1  0.76267  0.35829  0.51645 11.00000  0.05703   5.79
C009  1  0.43844  0.26864  0.46025 11.00000  0.05986   5.77
C00A  1  0.63648  0.17207  0.62957 11.00000  0.05987   5.76
C00B  1  0.58731  0.59850  0.17655 11.00000  0.06586   5.26
HKLF 4
END
