TITL SP14R08_expF_0_7_expS_1_4_SP14R08_c.res in Pn
REM Old TITL SP14R08 in P2(1)/n
REM SHELXT solution in Pn: R1 0.246, Rweak 0.056, Alpha 0.043
REM <I/s>   1.329 for  101 systematic absences,  Orientation as input
REM Formula found by SHELXT:  C12 N3 O5

CELL  0.71073   7.0200   9.2700  11.5600   90.000   97.670   90.000
ZERR   16.000   0.0014   0.0019   0.0023    0.000    0.030    0.000
LATT -1
SYMM 1/2+X, -Y, 1/2+Z
SFAC C H N O
UNIT 16 16 16 16
L.S. 10
BOND
LIST 6
FMAP 2
PLAN 20
O001  4  0.53625  1.07817  0.45055 11.00000  0.01975   8.88
O002  4  0.75787  0.60567  0.51979 11.00000  0.01576   8.18
O003  4  0.85002  0.75153  0.31578 11.00000  0.03228   7.91
O004  4  0.33139  1.16560  0.28152 11.00000  0.02708   7.43
N005  3  0.45366  0.80152  0.66874 11.00000  0.02631   7.39
N006  3  0.56717  0.98578  0.54772 11.00000  0.02411   7.28
N007  3  0.63067  0.41621  0.63599 11.00000  0.03160   6.50
C008  1  0.21399  0.98420  0.39829 11.00000  0.02098   6.31
C009  1  0.41345  0.88943  0.56779 11.00000  0.02518   6.30
C00A  1  0.58162  0.84918  0.17530 11.00000  0.03700   6.09
C00B  1  0.67904  0.76342  0.28523 11.00000  0.02645   6.00
C00C  1  0.77700  0.50850  0.61591 11.00000  0.03296   5.73
C00D  1  0.32500  0.73812  0.72557 11.00000  0.02567   5.52
C00E  1  0.58762  0.60454  0.44297 11.00000  0.02977   5.13
C00F  1  0.55994  0.69881  0.34748 11.00000  0.02260   4.91
C00G  1  0.40052  0.64812  0.82470 11.00000  0.02108   4.65
C00H  1  0.65753  0.31452  0.72616 11.00000  0.02655   4.64
C00I  1  0.36843  1.07728  0.37726 11.00000  0.03324   4.50
C00J  1  0.14998  0.73958  0.69809 11.00000  0.02061   4.07
O00K  4  0.45388  0.51251  0.46719 11.00000  0.06568   3.67
HKLF 4
END
