TITL SP14R08_expF_1_5_expS_1_1_SP14R08_b.res in Pn
REM Old TITL SP14R08 in P2(1)/n
REM SHELXT solution in Pn: R1 0.374, Rweak 0.014, Alpha 0.004
REM <I/s>   2.010 for  101 systematic absences,  Orientation as input
REM Formula found by SHELXT:  C17 N3 O3

CELL  0.71073   7.0200   9.2700  11.5600   90.000   97.670   90.000
ZERR   16.000   0.0014   0.0019   0.0023    0.000    0.030    0.000
LATT -1
SYMM 1/2+X, -Y, 1/2+Z
SFAC C H N O
UNIT 16 16 16 16
L.S. 10
BOND
LIST 6
FMAP 2
PLAN 20
N001  3  0.46472  0.97890  0.64172 11.00000  0.07813   7.33
N002  3  0.21176  0.58319  0.30481 11.00000  0.06895   6.74
C003  1  0.49264  0.89244  0.73507 11.00000  0.05747   6.64
N004  3  0.58525  1.17072  0.52674 11.00000  0.05775   6.62
C005  1  0.41413  0.67890  0.47113 11.00000  0.05200   6.17
C006  1  0.69503  0.79398  0.90802 11.00000  0.05512   6.16
C007  1  0.66204  0.89018  0.81242 11.00000  0.05727   6.14
C008  1  0.42662  0.23566  0.03238 11.00000  0.06118   6.03
C009  1  0.30176  0.30538  0.08802 11.00000  0.05257   6.01
C00A  1  0.19057  0.48672  0.21036 11.00000  0.06100   5.86
O00B  4  0.39674  0.74501  0.93908 11.00000  0.06843   5.86
C00C  1  0.61315  1.07594  0.61762 11.00000  0.05769   5.69
C00D  1  0.33319  0.39595  0.18705 11.00000  0.05522   5.64
C00E  1  0.65779  0.65077  1.07287 11.00000  0.06384   5.56
C00F  1  0.79256  1.07793  0.69082 11.00000  0.07199   5.39
O00G  4  0.60852  0.23921  0.05684 11.00000  0.08353   5.27
C00H  1  0.38269  0.58659  0.37679 11.00000  0.06390   5.22
C00I  1  0.80943  0.97836  0.78949 11.00000  0.06761   5.18
C00J  1  0.57084  0.73955  0.97029 11.00000  0.06361   5.02
C00K  1  0.53573  0.49136  0.35939 11.00000  0.06071   4.75
C00L  1  0.51700  0.39407  0.26802 11.00000  0.06115   4.49
C00M  1  0.34109  0.15063 -0.07287 11.00000  0.07167   4.48
O00N  4  0.44780  0.76482  0.68333 11.00000  0.45907   3.21
HKLF 4
END
