TITL SP14R08_expF_0_7_expS_1_3_SP14R08_c.res in Pn
REM Old TITL SP14R08 in P2(1)/n
REM SHELXT solution in Pn: R1 0.246, Rweak 0.070, Alpha 0.052
REM <I/s>   1.261 for  101 systematic absences,  Orientation as input
REM Formula found by SHELXT:  C10 N3 O6

CELL  0.71073   7.0200   9.2700  11.5600   90.000   97.670   90.000
ZERR   16.000   0.0014   0.0019   0.0023    0.000    0.030    0.000
LATT -1
SYMM 1/2+X, -Y, 1/2+Z
SFAC C H N O
UNIT 16 16 16 16
L.S. 10
BOND
LIST 6
FMAP 2
PLAN 20
O001  4  0.07829  0.89107  0.44082 11.00000  0.01071  10.32
N002  3  0.85627  0.41833  0.37281 11.00000  0.00010  10.22
O003  4  1.04617  0.51481  0.54254 11.00000  0.01749   8.34
O004  4  0.94320  0.69779  0.66152 11.00000  0.02956   8.17
C005  1  0.17487  0.73737  0.28552 11.00000  0.01911   7.72
O006  4  0.63921  0.76037  0.69333 11.00000  0.02054   7.59
O007  4  0.82401  0.32504  0.27958 11.00000  0.02508   7.53
N008  3  0.26968  0.98206  0.61415 11.00000  0.03143   6.89
N009  3  0.07600  0.64730  0.17741 11.00000  0.03357   6.89
C00A  1 -0.04617  1.07328  0.55819 11.00000  0.02066   6.24
C00B  1  0.73737  0.60590  0.48818 11.00000  0.01587   5.94
O00C  4  0.34264  0.74622  0.31323 11.00000  0.03959   5.79
C00D  1  0.04591  0.79771  0.33932 11.00000  0.02167   5.64
C00E  1  0.15034  1.17448  0.72388 11.00000  0.02648   5.55
C00F  1  0.25884  0.89047  0.51861 11.00000  0.03376   5.46
C00G  1  0.70327  0.51079  0.39401 11.00000  0.02130   5.40
C00H  1  1.03558  0.41271  0.45250 11.00000  0.03717   5.16
C00I  1  0.81580  0.76396  0.72498 11.00000  0.01892   5.04
C00J  1  0.89268  0.85020  0.82259 11.00000  0.01832   4.79
HKLF 4
END
