TITL SP14R08_expF_0_6_expS_0_5_SP14R08_a.res in P2
REM Old TITL SP14R08 in P2(1)/n
REM SHELXT solution in P2: R1 0.157, Rweak 0.512, Alpha 0.007
REM <I/s>   0.000 for    0 systematic absences,  Orientation as input
REM Formula found by SHELXT:  C25 N17 O6 I

CELL  0.71073   7.0200   9.2700  11.5600   90.000   97.670   90.000
ZERR   16.000   0.0014   0.0019   0.0023    0.000    0.030    0.000
LATT -1
SYMM -X, Y, -Z
SFAC C H N O I
UNIT 16 16 16 16 0
L.S. 10
BOND
LIST 6
FMAP 2
PLAN 20
I001  5  0.50000  0.65983  0.00000 10.50000  0.00010 190.78
O002  4  0.71986  0.18682  0.06636 11.00000  0.04425  14.26
O003  4  1.00000  0.12629  0.50000 10.50000  0.02081  13.80
O004  4  1.00000  0.03339  0.50000 10.50000  0.05494  11.08
C005  1  1.00000  0.46054  0.50000 10.50000  0.01462  10.19
C006  1  1.00000  0.77444  0.50000 10.50000  0.02730   9.87
N007  3  0.38699  0.84632  0.11983 11.00000  0.02046   9.66
N008  3  1.00000  0.36625  0.50000 10.50000  0.02674   9.51
N009  3  0.16076  0.42735  0.10173 11.00000  0.30988   9.13
C00A  1  1.00000  0.69821  0.50000 10.50000  0.03102   9.06
N00B  3  0.75561  0.51674  0.15235 11.00000  0.16318   7.93
O00C  4  0.79718  0.46332  0.34050 11.00000  0.15150   7.72
N00D  3  0.57956  0.32280  0.18454 11.00000  0.07806   7.29
N00E  3  1.11921  0.62066  0.38105 11.00000  0.08090   7.22
C00F  1  0.69153  0.75464  0.17381 11.00000  0.03316   6.95
N00G  3  0.74771  0.84853  0.25343 11.00000  0.06046   6.93
N00H  3  0.97942  0.69789  0.40911 11.00000  0.06060   6.62
C00I  1  1.22591  0.77964  0.55371 11.00000  0.05249   6.39
C00J  1  0.53948  0.18366  0.08123 11.00000  0.12382   5.82
C00K  1  0.25846  0.23731  0.18527 11.00000  0.34697   5.73
C00L  1  0.39157  0.96661  0.19895 11.00000  0.09877   5.73
C00M  1  0.87693  0.53652  0.17370 11.00000  0.16110   5.59
C00N  1  0.77939  0.31786  0.36869 11.00000  0.21778   5.08
C00O  1  0.81833  0.36921  0.17991 11.00000  0.23039   5.08
C00P  1  0.62395  0.46199  0.28593 11.00000  0.16248   4.77
C00Q  1  0.81178  0.77133  0.06018 11.00000  0.07679   4.74
N00R  3  0.57847  0.94536  0.28307 11.00000  0.11736   4.67
C00S  1  0.54959  0.76154  0.09899 11.00000  0.04484   4.53
HKLF 4
END
