TITL SP14R08_expF_1_4_expS_1_2_SP14R08_b.res in Pn
REM Old TITL SP14R08 in P2(1)/n
REM SHELXT solution in Pn: R1 0.380, Rweak 0.014, Alpha 0.005
REM <I/s>   2.058 for  101 systematic absences,  Orientation as input
REM Formula found by SHELXT:  C15 N4 O3

CELL  0.71073   7.0200   9.2700  11.5600   90.000   97.670   90.000
ZERR   16.000   0.0014   0.0019   0.0023    0.000    0.030    0.000
LATT -1
SYMM 1/2+X, -Y, 1/2+Z
SFAC C H N O
UNIT 16 16 16 16
L.S. 10
BOND
LIST 6
FMAP 2
PLAN 20
O001  4  0.16456  0.67328  0.71881 11.00000  0.06493   7.67
N002  3  0.08235  0.39452  0.43459 11.00000  0.06564   7.56
N003  3  0.27888  0.49124  0.60136 11.00000  0.07298   7.43
N004  3  0.87255 -0.07729  0.36613 11.00000  0.06502   6.98
N005  3 -0.03824  0.57562  0.55123 11.00000  0.06653   6.79
O006  4  0.64270  0.25791  0.68853 11.00000  0.07205   6.77
C007  1  0.04942  0.30592  0.33843 11.00000  0.05631   6.48
C008  1  1.05798  0.01950  0.53561 11.00000  0.05868   6.39
C009  1  0.17812  0.24149  0.28094 11.00000  0.05933   6.36
C00A  1  0.94391  0.20458  0.65764 11.00000  0.04772   6.35
C00B  1  0.74094  0.10999  0.48353 11.00000  0.05174   6.33
C00C  1  1.04020 -0.08179  0.43635 11.00000  0.07487   6.13
C00D  1  0.83720 -0.17214  0.27391 11.00000  0.05364   5.96
C00E  1  0.71441  0.01863  0.38445 11.00000  0.05941   5.52
C00F  1  0.82147  0.26688  0.71896 11.00000  0.06148   5.50
C00G  1 -0.05798  0.48715  0.45390 11.00000  0.05806   5.50
C00H  1  0.91393  0.34686  0.82380 11.00000  0.07312   5.48
C00I  1  0.25594  0.39493  0.51587 11.00000  0.06459   5.34
C00J  1  0.09036  0.14891  0.17620 11.00000  0.06169   5.28
C00K  1  0.90970  0.10851  0.56081 11.00000  0.05675   5.11
O00L  4  0.35367  0.24626  0.30550 11.00000  0.07021   4.93
C00M  1  0.13416  0.57851  0.62728 11.00000  0.06141   4.64
HKLF 4
END
