TITL SP14R08_expF_1_2_expS_1_3_SP14R08_c.res in P2(1)
REM Old TITL SP14R08 in P2(1)/n
REM SHELXT solution in P2(1): R1 0.359, Rweak 0.014, Alpha 0.025
REM <I/s>   0.977 for    6 systematic absences,  Orientation as input
REM Formula found by SHELXT:  C19 N O2

CELL  0.71073   7.0200   9.2700  11.5600   90.000   97.670   90.000
ZERR   16.000   0.0014   0.0019   0.0023    0.000    0.030    0.000
LATT -1
SYMM -X, 1/2+Y, -Z
SFAC C H N O
UNIT 16 16 16 16
L.S. 10
BOND
LIST 6
FMAP 2
PLAN 20
N001  3  0.90945  0.32558  0.47184 11.00000  0.05097   6.87
C002  1  0.53339  0.48136  0.85788 11.00000  0.05595   6.49
C003  1  0.21135  0.57359  0.80677 11.00000  0.05649   6.28
C004  1  0.80744  0.69500  0.09210 11.00000  0.04759   6.23
C005  1  0.30068  0.29773  0.58979 11.00000  0.04553   6.22
C006  1  0.70783  0.41203  0.30661 11.00000  0.05588   6.09
C007  1  0.41545  0.67308  0.97267 11.00000  0.04000   6.08
C008  1  0.51276  0.38945  0.76536 11.00000  0.05353   6.06
C009  1  0.33752  0.38511  0.68685 11.00000  0.04410   6.04
C00A  1  0.83874  0.59798  0.18710 11.00000  0.05518   6.01
C00B  1  1.03178  0.50908  0.36024 11.00000  0.05118   5.99
O00C  4  0.60229  0.24516  0.55781 11.00000  0.06066   5.96
C00D  1  0.19228  0.47843  0.71023 11.00000  0.05583   5.91
C00E  1  0.42689  0.22856  0.53092 11.00000  0.05425   5.84
C00F  1  0.88579  0.41288  0.37907 11.00000  0.04983   5.82
O00G  4  1.10905  0.75776  0.05985 11.00000  0.06853   5.67
C00H  1  0.92834  0.75525  0.02862 11.00000  0.05291   5.52
C00I  1  0.37933  0.57389  0.88077 11.00000  0.05578   5.50
C00J  1  0.68993  0.51060  0.20966 11.00000  0.05664   5.49
C00K  1  0.84099  0.85099 -0.07318 11.00000  0.06377   5.23
C00L  1  0.33910  0.14901  0.42574 11.00000  0.05632   5.22
C00M  1  1.01282  0.60349  0.26580 11.00000  0.04997   5.21
HKLF 4
END
