TITL SP14R08_expF_1_3_expS_1_1_SP14R08_c.res in P2(1)
REM Old TITL SP14R08 in P2(1)/n
REM SHELXT solution in P2(1): R1 0.321, Rweak 0.018, Alpha 0.045
REM <I/s>   0.826 for    6 systematic absences,  Orientation as input
REM Formula found by SHELXT:  C18 N2 O2

CELL  0.71073   7.0200   9.2700  11.5600   90.000   97.670   90.000
ZERR   16.000   0.0014   0.0019   0.0023    0.000    0.030    0.000
LATT -1
SYMM -X, 1/2+Y, -Z
SFAC C H N O
UNIT 16 16 16 16
L.S. 10
BOND
LIST 6
FMAP 2
PLAN 20
N001  3  0.90905  0.32790  0.47232 11.00000  0.04572   6.90
N002  3  0.71260  0.41018  0.30474 11.00000  0.06802   6.67
C003  1  0.80528  0.69666  0.08924 11.00000  0.04246   6.42
C004  1  1.03271  0.50923  0.35965 11.00000  0.04545   6.37
O005  4  0.59922  0.24488  0.55655 11.00000  0.05558   6.32
C006  1  0.88467  0.41215  0.38073 11.00000  0.04328   6.22
C007  1  0.41422  0.67428  0.97247 11.00000  0.03486   6.21
C008  1  1.00988  0.60371  0.26540 11.00000  0.04052   6.19
C009  1  0.83854  0.60032  0.19004 11.00000  0.04999   6.16
C00A  1  0.92944  0.75414  0.02831 11.00000  0.04511   6.14
C00B  1  0.53225  0.48153  0.85833 11.00000  0.04709   6.13
C00C  1  0.30026  0.29922  0.59018 11.00000  0.03781   6.09
C00D  1  0.69409  0.50698  0.20808 11.00000  0.04995   5.95
C00E  1  0.33686  0.38726  0.68639 11.00000  0.03829   5.89
C00F  1  0.34041  0.15100  0.42548 11.00000  0.04752   5.71
C00G  1  0.18990  0.47614  0.71114 11.00000  0.04667   5.63
O00H  4  1.10774  0.75931  0.06107 11.00000  0.05889   5.61
C00I  1  0.21180  0.57043  0.80614 11.00000  0.04220   5.56
C00J  1  0.43081  0.22916  0.53318 11.00000  0.04765   5.49
C00K  1  0.37902  0.57385  0.87997 11.00000  0.04721   5.24
C00L  1  0.51087  0.38974  0.76341 11.00000  0.04985   5.08
C00M  1  0.84110  0.84900 -0.07261 11.00000  0.05864   4.70
HKLF 4
END
