TITL SP14R08_expF_1_5_expS_1_5_SP14R08_a.res in Pn
REM Old TITL SP14R08 in P2(1)/n
REM SHELXT solution in Pn: R1 0.647, Rweak 0.003, Alpha 0.017
REM <I/s>   2.462 for  101 systematic absences,  Orientation as input
REM Formula found by SHELXT:  C36 N19 O6

CELL  0.71073   7.0200   9.2700  11.5600   90.000   97.670   90.000
ZERR   16.000   0.0014   0.0019   0.0023    0.000    0.030    0.000
LATT -1
SYMM 1/2+X, -Y, 1/2+Z
SFAC C H N O
UNIT 16 16 16 16
L.S. 10
BOND
LIST 6
FMAP 2
PLAN 20
N001  3  0.60152  0.48170  0.36360 11.00000  0.05617  13.75
N002  3  0.13924  0.10357  0.48546 11.00000  0.06174  13.11
N003  3  0.01586 -0.08482  0.60406 11.00000  0.06117  12.65
N004  3  0.79610  0.39169  0.53418 11.00000  0.05846  12.24
O005  4  0.91413  0.57918  0.41400 11.00000  0.07335  11.41
N006  3  0.71580  0.24190  0.69294 11.00000  0.07167  11.33
O007  4  0.04044 -0.17490  0.69625 11.00000  0.05830  11.09
N008  3  0.82446  0.30115  0.63420 11.00000  0.05222  10.59
O009  4  1.23143  0.32861  0.75283 11.00000  0.06350  10.12
O00A  4  0.23784  0.25773  0.27666 11.00000  0.06779  10.05
N00B  3 -0.17291  0.00098  0.43071 11.00000  0.07636   9.91
O00C  4  0.53493  0.24530  0.66920 11.00000  0.06684   9.15
N00D  3  0.05679  0.26789  0.25272 11.00000  0.06270   9.03
O00E  4  0.58881  0.16946  0.85518 11.00000  0.10588   8.85
N00F  3  0.32967  0.45643  0.31306 11.00000  0.10464   7.84
N00G  3  0.29665  0.00475  0.66237 11.00000  0.09158   7.82
N00H  3  0.63822  0.39466  0.45815 11.00000  0.07951   7.70
N00I  3 -0.06089  0.19653  0.31388 11.00000  0.06491   7.69
N00J  3 -0.13503  0.38132  0.29395 11.00000  0.10260   7.59
C00K  1 -0.02520  0.11475  0.41195 11.00000  0.07120   7.37
N00L  3  0.52777  0.40359  0.59117 11.00000  0.11103   7.35
N00M  3 -0.18985  0.26989  0.14482 11.00000  0.12511   6.88
C00N  1  0.16253  0.01062  0.57900 11.00000  0.05786   6.84
N00O  3  0.37383  0.60042  0.39954 11.00000  0.13703   6.82
N00P  3  0.79133  0.15381  0.80029 11.00000  0.07249   6.61
C00Q  1  0.91960  0.70800  0.57333 11.00000  0.14902   6.40
C00R  1  0.37663 -0.03069  0.60836 11.00000  0.09797   6.34
C00S  1  0.49790  0.28162  0.47763 11.00000  0.10655   6.29
C00T  1  0.94239  0.48638  0.51277 11.00000  0.05654   6.21
N00U  3  0.65451  0.63848  0.49868 11.00000  0.11166   5.90
C00V  1 -0.14609 -0.07133  0.53502 11.00000  0.06581   5.89
C00W  1  0.54035  0.77365  0.44170 11.00000  0.16648   5.86
C00X  1  0.71716  0.17315  0.49787 11.00000  0.14095   5.78
C00Y  1  0.27383  0.14455  0.48413 11.00000  0.11914   5.74
C00Z  1  0.88632  0.02686  0.78309 11.00000  0.14201   5.67
C010  1  0.87423  0.54954  0.65200 11.00000  0.11041   5.63
C011  1  0.35551  0.38397  0.52098 11.00000  0.11732   5.58
C012  1 -0.03360  0.35622  0.14802 11.00000  0.06600   5.46
C013  1  0.35944  0.07623  0.70336 11.00000  0.11936   5.36
C014  1  0.81553  0.61768  0.62902 11.00000  0.11646   5.34
C015  1  0.93782  0.41082  0.69104 11.00000  0.13977   5.26
C016  1  1.06115  0.45701  0.61156 11.00000  0.12374   5.22
C017  1 -0.17031 -0.14675  0.35608 11.00000  0.14103   5.18
C018  1  0.51927  0.37779  0.26144 11.00000  0.11994   5.04
C019  1  0.12103 -0.01985  0.25787 11.00000  0.14222   5.04
C01A  1  0.57646  0.14108  0.49728 11.00000  0.16522   5.01
C01B  1  0.41678  0.21822  0.43283 11.00000  0.10890   4.89
C01C  1  0.29643  0.33569  0.42373 11.00000  0.11587   4.88
C01D  1  0.58932  0.49196  0.67354 11.00000  0.09903   4.86
C01E  1  0.10968  0.07573  0.34942 11.00000  0.15973   4.84
C01F  1  0.01323  0.22022  0.15906 11.00000  0.10544   4.82
C01G  1 -0.06756  0.02975  0.32436 11.00000  0.17615   4.75
C01H  1 -0.23143 -0.09837  0.64365 11.00000  0.09772   4.72
C01I  1  0.52576  0.58548  0.48944 11.00000  0.15972   4.68
C01J  1 -0.13472  0.08244  0.26002 11.00000  0.16093   4.66
C01K  1  0.91381  0.32023  0.65328 11.00000  0.13535   4.63
C01L  1 -0.19298  0.21503  0.28624 11.00000  0.12311   4.53
C01M  1  1.00503  0.20105  0.79107 11.00000  0.10740   4.47
C01N  1  0.28095  0.25135  0.44612 11.00000  0.13165   4.45
N01O  3  1.10130  0.06280  0.72391 11.00000  0.09416   4.28
C01P  1  0.01924  0.22462  0.50778 11.00000  0.12541   4.16
HKLF 4
END
