TITL SP14R08_expF_1_3_expS_0_6_SP14R08_a.res in Pn
REM Old TITL SP14R08 in P2(1)/n
REM SHELXT solution in Pn: R1 0.241, Rweak 0.124, Alpha 0.096
REM <I/s>   1.161 for  101 systematic absences,  Orientation as input
REM Formula found by SHELXT:  C11 N3 O5

CELL  0.71073   7.0200   9.2700  11.5600   90.000   97.670   90.000
ZERR   16.000   0.0014   0.0019   0.0023    0.000    0.030    0.000
LATT -1
SYMM 1/2+X, -Y, 1/2+Z
SFAC C H N O
UNIT 16 16 16 16
L.S. 10
BOND
LIST 6
FMAP 2
PLAN 20
N001  3  0.36516 -0.08266  0.37222 11.00000  0.00010  10.14
O002  4  0.58762  0.39155  0.44126 11.00000  0.00411   9.15
O003  4  0.55505  0.01498  0.54298 11.00000  0.01275   8.54
O004  4  0.14975  0.26084  0.69641 11.00000  0.01259   8.04
O005  4  0.45225  0.19937  0.65843 11.00000  0.02748   7.46
N006  3  0.40495  0.35078  0.82235 11.00000  0.01723   7.08
N007  3  0.68929  0.23769  0.28355 11.00000  0.01831   6.77
C008  1  0.33089 -0.17259  0.27693 11.00000  0.00743   6.46
C009  1  0.55584  0.29887  0.33625 11.00000  0.01607   6.40
C00A  1  0.24474  0.10382  0.48569 11.00000  0.01765   6.28
C00B  1  0.66059  0.67670  0.72162 11.00000  0.01644   6.16
C00C  1  0.21282  0.00874  0.39270 11.00000  0.01476   5.96
C00D  1  0.46475  0.57075  0.56016 11.00000  0.01367   5.86
C00E  1  0.77827  0.47952  0.61282 11.00000  0.02045   5.77
C00F  1  0.33082  0.26296  0.72372 11.00000  0.01798   5.74
O00G  4  0.85025  0.24533  0.31854 11.00000  0.03975   5.53
C00H  1  0.58998  0.14909  0.17765 11.00000  0.02316   4.81
C00I  1  0.76419  0.38838  0.51757 11.00000  0.02454   4.74
C00J  1  0.55180 -0.09485  0.45665 11.00000  0.03631   4.65
HKLF 4
END
