TITL SP14R08_expF_1_3_expS_1_5_SP14R08_a.res in P2(1)/n
REM Old TITL SP14R08 in P2(1)/n
REM SHELXT solution in P2(1)/n: R1 0.497, Rweak 0.028, Alpha 0.017
REM <I/s>   2.236 for  103 systematic absences,  Orientation as input
REM Formula found by SHELXT:  C8 N O2

CELL  0.71073   7.0200   9.2700  11.5600   90.000   97.670   90.000
ZERR   16.000   0.0014   0.0019   0.0023    0.000    0.030    0.000
LATT  1
SYMM 1/2-X, 1/2+Y, 1/2-Z
SFAC C H N O
UNIT 16 16 16 16
L.S. 10
BOND
LIST 6
FMAP 2
PLAN 20
O001  4  0.33827  0.07004  0.27582 11.00000  0.08800   7.21
N002  3  0.21363  0.26506  0.38867 11.00000  0.08861   6.83
C003  1  0.44671  0.44809  0.66184 11.00000  0.06691   6.30
C004  1  0.56273  0.26218  0.53996 11.00000  0.07490   6.09
C005  1  0.54015  0.17078  0.44297 11.00000  0.07516   6.00
C006  1  0.36149  0.17081  0.36891 11.00000  0.06968   5.77
C007  1  0.32283  0.50927  0.71585 11.00000  0.07137   5.71
C008  1  0.40873  0.35424  0.56103 11.00000  0.06992   5.70
C009  1  0.24354  0.36180  0.48553 11.00000  0.07139   5.60
O00A  4  0.14399  0.50380  0.69151 11.00000  0.08550   5.29
C00B  1  0.41181  0.59958  0.82572 11.00000  0.07740   4.79
HKLF 4
END
