TITL SP14R08_expF_1_1_expS_0_9_SP14R08_c.res in P2(1)
REM Old TITL SP14R08 in P2(1)/n
REM SHELXT solution in P2(1): R1 0.243, Rweak 0.058, Alpha 0.123
REM <I/s>   2.350 for    6 systematic absences,  Orientation as input
REM Formula found by SHELXT:  C17 N3 O2

CELL  0.71073   7.0200   9.2700  11.5600   90.000   97.670   90.000
ZERR   16.000   0.0014   0.0019   0.0023    0.000    0.030    0.000
LATT -1
SYMM -X, 1/2+Y, -Z
SFAC C H N O
UNIT 16 16 16 16
L.S. 10
BOND
LIST 6
FMAP 2
PLAN 20
N001  3  0.16747  0.39560  0.80977 11.00000  0.01788   8.02
C002  1  0.07177  0.24151  0.97017 11.00000  0.02261   7.65
N003  3  0.09425  0.68016  0.53185 11.00000  0.03792   7.08
N004  3  0.29728  0.58442  0.69546 11.00000  0.03620   6.83
C005  1  0.11850  0.57203  0.61699 11.00000  0.02723   6.52
C006  1  0.48562  0.59687  0.23604 11.00000  0.02562   6.42
C007  1  0.19835  0.30233  0.90935 11.00000  0.02455   6.27
O008  4  0.40004  0.74822  0.44255 11.00000  0.03567   6.22
C009  1  0.31328  0.48975  0.78920 11.00000  0.02775   6.18
C00A  1  0.47133  0.51269  0.14305 11.00000  0.02695   6.18
C00B  1  0.69934  0.70143  0.41065 11.00000  0.02464   6.13
O00C  4 -0.10548  0.23449  0.93929 11.00000  0.05251   6.09
C00D  1 -0.03578  0.48650  0.63616 11.00000  0.03659   5.98
C00E  1  0.14911  0.14958  1.07141 11.00000  0.03376   5.60
C00F  1  0.57943  0.33120  0.02465 11.00000  0.01729   5.38
C00G  1  0.66471  0.85042  0.57548 11.00000  0.02828   5.05
C00H  1 -0.00366  0.38346  0.73491 11.00000  0.02731   4.98
C00I  1  0.80607  0.52116  0.29305 11.00000  0.03838   4.89
C00J  1  0.77889  0.42647  0.19337 11.00000  0.04000   4.83
C00K  1  0.61668  0.41053  0.12310 11.00000  0.03005   4.75
C00L  1  0.56870  0.76819  0.47121 11.00000  0.03299   4.17
C00M  1  0.64821  0.60967  0.31804 11.00000  0.06079   3.97
HKLF 4
END
