TITL SP14R08_expF_1_3_expS_0_7_SP14R08_a.res in Pn
REM Old TITL SP14R08 in P2(1)/n
REM SHELXT solution in Pn: R1 0.238, Rweak 0.072, Alpha 0.032
REM <I/s>   1.259 for  101 systematic absences,  Orientation as input
REM Formula found by SHELXT:  C10 N3 O7

CELL  0.71073   7.0200   9.2700  11.5600   90.000   97.670   90.000
ZERR   16.000   0.0014   0.0019   0.0023    0.000    0.030    0.000
LATT -1
SYMM 1/2+X, -Y, 1/2+Z
SFAC C H N O
UNIT 16 16 16 16
L.S. 10
BOND
LIST 6
FMAP 2
PLAN 20
O001  4  0.76133  0.39201  0.51749 11.00000  0.00870  11.77
N002  3  0.63306  0.57837  0.63173 11.00000  0.00280   9.14
O003  4  0.54274  0.29910  0.34007 11.00000  0.02808   8.44
O004  4  0.77987  0.48565  0.61855 11.00000  0.05030   8.07
O005  4  0.85202  0.24084  0.30985 11.00000  0.03625   7.93
O006  4  0.54108 -0.07933  0.44965 11.00000  0.03928   7.93
N007  3  0.32576  0.26536  0.71902 11.00000  0.02354   7.54
O008  4  0.33618 -0.16912  0.27927 11.00000  0.03220   7.35
N009  3  0.59977  0.15002  0.17780 11.00000  0.02573   7.06
C00A  1  0.58490  0.38855  0.44032 11.00000  0.01683   6.46
C00B  1  0.66314  0.67906  0.72427 11.00000  0.01497   6.27
C00C  1  0.44695  0.48611  0.46578 11.00000  0.01135   6.27
O00D  4  0.14798  0.25596  0.69118 11.00000  0.02578   5.87
C00E  1  0.43833  0.19860  0.65965 11.00000  0.01435   5.50
C00F  1  0.56403  0.01522  0.54557 11.00000  0.03501   5.32
C00G  1  0.68747  0.23959  0.27875 11.00000  0.01956   5.04
C00H  1  0.40911  0.10034  0.56589 11.00000  0.02603   4.96
C00I  1  0.21656  0.01158  0.39388 11.00000  0.01618   4.80
C00J  1  0.41736  0.35177  0.82220 11.00000  0.02830   4.45
C00K  1  0.46437  0.57551  0.56229 11.00000  0.03574   3.76
HKLF 4
END
