TITL SP14R08_expF_1_0_expS_0_8_SP14R08_a.res in P2(1)/n
REM Old TITL SP14R08 in P2(1)/n
REM SHELXT solution in P2(1)/n: R1 0.290, Rweak 0.134, Alpha 0.171
REM <I/s>   1.209 for  107 systematic absences,  Orientation as input
REM Formula found by SHELXT:  C10 O

CELL  0.71073   7.0200   9.2700  11.5600   90.000   97.670   90.000
ZERR   16.000   0.0014   0.0019   0.0023    0.000    0.030    0.000
LATT  1
SYMM 1/2-X, 1/2+Y, 1/2-Z
SFAC C H N O
UNIT 16 16 16 16
L.S. 10
BOND
LIST 6
FMAP 2
PLAN 20
C001  1  0.44871  0.55007  0.66119 11.00000  0.01335   6.47
O002  4  0.14887  0.49390  0.69129 11.00000  0.02787   6.37
C003  1  0.32003  0.48682  0.72087 11.00000  0.01704   6.29
C004  1  0.36778  0.82903  0.37063 11.00000  0.01927   5.98
C005  1  0.21818  0.73606  0.38911 11.00000  0.01805   5.96
C006  1  0.33406  0.92566  0.27820 11.00000  0.01439   5.94
C007  1  0.41192  0.64313  0.56218 11.00000  0.01948   5.83
C008  1  0.40749  0.39951  0.82284 11.00000  0.01775   5.65
C009  1  0.54068  0.82910  0.44542 11.00000  0.02301   5.48
C00A  1  0.56171  0.73591  0.54080 11.00000  0.02061   5.47
C00B  1  0.24135  0.64235  0.48514 11.00000  0.01778   5.47
HKLF 4
END
