TITL SP14R08_expF_1_4_expS_0_7_SP14R08_a.res in P2(1)/n
REM Old TITL SP14R08 in P2(1)/n
REM SHELXT solution in P2(1)/n: R1 0.269, Rweak 0.066, Alpha 0.110
REM <I/s>   1.379 for  107 systematic absences,  Orientation as input
REM Formula found by SHELXT:  C9 N O

CELL  0.71073   7.0200   9.2700  11.5600   90.000   97.670   90.000
ZERR   16.000   0.0014   0.0019   0.0023    0.000    0.030    0.000
LATT  1
SYMM 1/2-X, 1/2+Y, 1/2-Z
SFAC C H N O
UNIT 16 16 16 16
L.S. 10
BOND
LIST 6
FMAP 2
PLAN 20
N001  3  0.55098  0.55062  0.33897 11.00000  0.02874   6.53
C002  1  0.67899  0.48806  0.27896 11.00000  0.02202   6.26
O003  4  0.85041  0.49350  0.30859 11.00000  0.03876   6.19
C004  1  0.66433  0.92563  0.72189 11.00000  0.01830   6.15
C005  1  0.58801  0.64320  0.43846 11.00000  0.02429   6.07
C006  1  0.78228  0.73605  0.60988 11.00000  0.02470   6.01
C007  1  0.63307  0.82896  0.63028 11.00000  0.02541   5.87
C008  1  0.75894  0.64325  0.51472 11.00000  0.02440   5.66
C009  1  0.46155  0.82894  0.55553 11.00000  0.02890   5.59
C00A  1  0.59202  0.39909  0.17672 11.00000  0.02613   5.51
C00B  1  0.43900  0.73561  0.45921 11.00000  0.02714   5.47
HKLF 4
END
