TITL SP14R08_expF_0_9_expS_1_3_SP14R08_b.res in Pn
REM Old TITL SP14R08 in P2(1)/n
REM SHELXT solution in Pn: R1 0.255, Rweak 0.031, Alpha 0.029
REM <I/s>   1.543 for  101 systematic absences,  Orientation as input
REM Formula found by SHELXT:  C16 N3 O3

CELL  0.71073   7.0200   9.2700  11.5600   90.000   97.670   90.000
ZERR   16.000   0.0014   0.0019   0.0023    0.000    0.030    0.000
LATT -1
SYMM 1/2+X, -Y, 1/2+Z
SFAC C H N O
UNIT 16 16 16 16
L.S. 10
BOND
LIST 6
FMAP 2
PLAN 20
O001  4  0.77361  0.98898  0.60076 11.00000  0.05509   7.89
O002  4  0.84928  0.74649  0.30532 11.00000  0.03747   7.39
N003  3  0.65879  1.17159  0.71890 11.00000  0.02328   7.14
N004  3  0.58246  0.89861  0.43534 11.00000  0.04855   6.90
N005  3  0.35627  0.41574  0.36318 11.00000  0.04398   6.88
C006  1  0.66906  0.74455  0.27700 11.00000  0.03616   6.76
C007  1  0.55275  0.80467  0.33907 11.00000  0.02828   6.39
C008  1  0.55301  0.51516  0.53530 11.00000  0.03609   6.23
C009  1  0.44850  0.70144  0.65895 11.00000  0.03033   6.16
C00A  1  0.52341  0.42710  0.43489 11.00000  0.04144   6.07
C00B  1  0.45133  1.08635  0.54691 11.00000  0.03738   5.88
C00C  1  0.33909  0.32359  0.27561 11.00000  0.04511   5.67
C00D  1  0.74524  0.89457  0.51205 11.00000  0.04017   5.62
C00E  1  0.22834  0.60754  0.48252 11.00000  0.03193   5.53
C00F  1  0.57608  0.64329  0.17674 11.00000  0.03650   5.48
C00G  1  0.31157  0.76917  0.71723 11.00000  0.03340   5.37
C00H  1  0.39165  0.84602  0.82326 11.00000  0.04237   5.26
C00I  1  0.40635  0.61064  0.55732 11.00000  0.03051   5.12
C00J  1  0.43472  0.98615  0.45617 11.00000  0.04098   5.09
C00K  1  0.62091  1.07917  0.62379 11.00000  0.03722   4.75
O00L  4  0.15072  0.75987  0.68850 11.00000  0.07090   4.71
C00M  1  0.21223  0.51350  0.38059 11.00000  0.03983   4.46
HKLF 4
END
