TITL SP14R08_expF_1_2_expS_1_2_SP14R08_c.res in P2(1)
REM Old TITL SP14R08 in P2(1)/n
REM SHELXT solution in P2(1): R1 0.322, Rweak 0.018, Alpha 0.046
REM <I/s>   3.032 for    6 systematic absences,  Orientation as input
REM Formula found by SHELXT:  C18 N2 O2

CELL  0.71073   7.0200   9.2700  11.5600   90.000   97.670   90.000
ZERR   16.000   0.0014   0.0019   0.0023    0.000    0.030    0.000
LATT -1
SYMM -X, 1/2+Y, -Z
SFAC C H N O
UNIT 16 16 16 16
L.S. 10
BOND
LIST 6
FMAP 2
PLAN 20
N001  3  0.19879  0.70010  0.91138 11.00000  0.04940   6.78
N002  3  0.58538  0.67038  0.02860 11.00000  0.04325   6.70
C003  1  0.16168  0.61117  0.81306 11.00000  0.04248   6.60
C004  1  0.78568  0.58216  0.19421 11.00000  0.04603   6.23
C005  1  0.08928  0.32232  0.52664 11.00000  0.03842   6.17
C006  1  0.46782  0.48430  0.14180 11.00000  0.04337   6.15
C007  1  0.48794  0.39025  0.23530 11.00000  0.04783   6.09
C008  1 -0.03250  0.50966  0.64021 11.00000  0.05115   6.08
C009  1  0.61704  0.58393  0.12242 11.00000  0.04314   5.98
O00A  4  0.39512  0.23821  0.44078 11.00000  0.06213   5.88
C00B  1  0.28975  0.42370  0.69401 11.00000  0.05233   5.86
C00C  1  0.07259  0.76699  0.97219 11.00000  0.04657   5.80
O00D  4 -0.10201  0.75154  0.94163 11.00000  0.05602   5.69
C00E  1  0.69578  0.30248  0.40885 11.00000  0.04140   5.67
C00F  1  0.30686  0.50978  0.79253 11.00000  0.04621   5.67
C00G  1  0.16451  0.84959  1.07490 11.00000  0.04948   5.65
C00H  1  0.56997  0.24353  0.46751 11.00000  0.04711   5.63
C00I  1  0.80919  0.47908  0.28918 11.00000  0.05329   5.47
C00J  1  0.11720  0.42089  0.61742 11.00000  0.04760   5.37
C00K  1  0.66305  0.39812  0.31189 11.00000  0.04392   5.37
C00L  1 -0.01087  0.60279  0.73655 11.00000  0.04138   5.17
C00M  1  0.65175  0.15041  0.57219 11.00000  0.05493   4.73
HKLF 4
END
