TITL SP14R08_expF_1_2_expS_1_2_SP14R08_b.res in Pn
REM Old TITL SP14R08 in P2(1)/n
REM SHELXT solution in Pn: R1 0.313, Rweak 0.017, Alpha 0.016
REM <I/s>   1.677 for  101 systematic absences,  Orientation as input
REM Formula found by SHELXT:  C14 N6 O2

CELL  0.71073   7.0200   9.2700  11.5600   90.000   97.670   90.000
ZERR   16.000   0.0014   0.0019   0.0023    0.000    0.030    0.000
LATT -1
SYMM 1/2+X, -Y, 1/2+Z
SFAC C H N O
UNIT 16 16 16 16
L.S. 10
BOND
LIST 6
FMAP 2
PLAN 20
N001  3  0.41623  0.88897  0.56305 11.00000  0.04705   7.53
N002  3  0.64408  0.41479  0.62811 11.00000  0.04690   7.47
N003  3  0.76442  0.60405  0.51088 11.00000  0.05128   7.07
N004  3  0.55209  0.69568  0.33924 11.00000  0.05966   6.77
N005  3  0.44655  0.51418  0.45676 11.00000  0.06665   6.71
N006  3  0.53847  1.07964  0.44496 11.00000  0.05381   6.52
C007  1  0.33864  1.17280  0.27651 11.00000  0.03744   6.34
C008  1  0.66563  0.32532  0.72158 11.00000  0.03616   6.31
C009  1  0.32620  0.73703  0.72357 11.00000  0.04514   6.26
C00A  1  0.21560  0.98878  0.38814 11.00000  0.04218   6.21
O00B  4  0.85255  0.75465  0.30835 11.00000  0.06247   5.89
C00C  1  0.77948  0.51213  0.60549 11.00000  0.04961   5.84
O00D  4  0.14745  0.74218  0.69007 11.00000  0.05640   5.66
C00E  1  0.44879  0.79867  0.66004 11.00000  0.03513   5.52
C00F  1  0.41184  0.64573  0.82274 11.00000  0.05164   5.28
C00G  1  0.46321  0.42013  0.55790 11.00000  0.05425   5.15
C00H  1  0.59761  0.84560  0.17726 11.00000  0.05353   5.06
C00I  1  0.68442  0.76230  0.28298 11.00000  0.04897   4.90
C00J  1  0.56238  0.98363  0.53839 11.00000  0.04566   4.43
C00K  1  0.24208  0.89141  0.48164 11.00000  0.04603   4.05
C00L  1  0.59105  0.59941  0.43811 11.00000  0.04793   4.00
C00M  1  0.37909  1.07705  0.36710 11.00000  0.05173   3.83
HKLF 4
END
