TITL SP14R08_expF_1_5_expS_0_6_SP14R08_c.res in P2(1)
REM Old TITL SP14R08 in P2(1)/n
REM SHELXT solution in P2(1): R1 0.244, Rweak 0.085, Alpha 0.133
REM <I/s>   2.113 for    6 systematic absences,  Orientation as input
REM Formula found by SHELXT:  C16 N4 O2

CELL  0.71073   7.0200   9.2700  11.5600   90.000   97.670   90.000
ZERR   16.000   0.0014   0.0019   0.0023    0.000    0.030    0.000
LATT -1
SYMM -X, 1/2+Y, -Z
SFAC C H N O
UNIT 16 16 16 16
L.S. 10
BOND
LIST 6
FMAP 2
PLAN 20
O001  4  1.09874  0.23647  0.05512 11.00000  0.02785   7.57
C002  1  0.38965  0.41485  0.87915 11.00000  0.02638   7.35
N003  3  0.52719  0.51167  0.85912 11.00000  0.03132   6.91
N004  3  0.78970  0.29249  0.08803 11.00000  0.03211   6.81
N005  3  0.50962  0.60789  0.76938 11.00000  0.02967   6.74
N006  3  0.41304  0.33227  0.97307 11.00000  0.02302   6.70
C007  1  0.83478  0.38562  0.18545 11.00000  0.02257   6.19
C008  1  0.71659  0.56606  0.30709 11.00000  0.02334   6.16
C009  1  0.92797  0.22310  0.03364 11.00000  0.01815   6.05
C00A  1  0.43008  0.74928  0.52538 11.00000  0.02370   6.01
C00B  1  0.31084  0.69252  0.59092 11.00000  0.01259   5.66
C00C  1  0.68922  0.47046  0.21052 11.00000  0.02776   5.63
C00D  1  0.34397  0.85193  0.43395 11.00000  0.03514   5.47
C00E  1  0.34271  0.60074  0.69290 11.00000  0.02782   5.38
C00F  1  0.20246  0.40449  0.80212 11.00000  0.03323   5.06
C00G  1  0.84130  0.14807 -0.07763 11.00000  0.01659   5.05
C00H  1  0.19044  0.49941  0.70841 11.00000  0.02253   4.94
C00I  1  0.91450  0.68176  0.47107 11.00000  0.01770   4.82
C00J  1  1.03742  0.48611  0.36055 11.00000  0.03338   4.33
O00K  4  0.60718  0.74696  0.56482 11.00000  0.04841   4.33
C00L  1  1.00766  0.39738  0.25940 11.00000  0.02758   4.15
C00M  1  0.87660  0.57319  0.38170 11.00000  0.02236   3.79
HKLF 4
END
