TITL SP14R08_expF_1_1_expS_0_6_SP14R08_a.res in Pn
REM Old TITL SP14R08 in P2(1)/n
REM SHELXT solution in Pn: R1 0.248, Rweak 0.197, Alpha 0.107
REM <I/s>   1.072 for  101 systematic absences,  Orientation as input
REM Formula found by SHELXT:  C9 N2 O8

CELL  0.71073   7.0200   9.2700  11.5600   90.000   97.670   90.000
ZERR   16.000   0.0014   0.0019   0.0023    0.000    0.030    0.000
LATT -1
SYMM 1/2+X, -Y, 1/2+Z
SFAC C H N O
UNIT 16 16 16 16
L.S. 10
BOND
LIST 6
FMAP 2
PLAN 20
N001  3  0.36930  0.42155  0.36987 11.00000  0.00010  10.63
C002  1  0.68251  0.73734  0.29068 11.00000  0.00880   9.47
O003  4  0.55957  0.51363  0.54170 11.00000  0.00042   9.32
O004  4  0.24269  0.60804  0.48466 11.00000  0.00010   9.17
O005  4  0.40304  0.84753  0.82367 11.00000  0.01203   8.45
O006  4  0.46613  0.70164  0.66537 11.00000  0.02406   8.32
O007  4  0.85482  0.73934  0.31078 11.00000  0.00831   8.18
O008  4  0.34430  0.31850  0.28115 11.00000  0.00849   7.54
O009  4  0.59517  0.90246  0.44281 11.00000  0.03098   7.20
N00A  3  0.22266  0.50588  0.38375 11.00000  0.02196   6.66
C00B  1  0.45340  1.08687  0.55610 11.00000  0.01393   5.64
C00C  1  0.67430  1.16486  0.72501 11.00000  0.01788   5.57
C00D  1  0.56589  0.79864  0.34286 11.00000  0.00151   5.52
O00E  4  0.14518  0.75267  0.68826 11.00000  0.02937   5.27
C00F  1  0.78638  0.97813  0.60830 11.00000  0.00737   4.77
C00G  1  0.54032  0.43219  0.44244 11.00000  0.01971   4.65
C00H  1  0.41920  0.61635  0.56178 11.00000  0.01354   4.37
C00I  1  0.31956  0.76683  0.72782 11.00000  0.00321   4.34
C00J  1  0.57621  0.64248  0.17633 11.00000  0.02561   3.40
HKLF 4
END
