TITL SP14R08_expF_0_5_expS_1_5_SP14R08_a.res in Pn
REM Old TITL SP14R08 in P2(1)/n
REM SHELXT solution in Pn: R1 0.239, Rweak 0.144, Alpha 0.104
REM <I/s>   1.134 for  101 systematic absences,  Orientation as input
REM Formula found by SHELXT:  C10 N3 O8

CELL  0.71073   7.0200   9.2700  11.5600   90.000   97.670   90.000
ZERR   16.000   0.0014   0.0019   0.0023    0.000    0.030    0.000
LATT -1
SYMM 1/2+X, -Y, 1/2+Z
SFAC C H N O
UNIT 16 16 16 16
L.S. 10
BOND
LIST 6
FMAP 2
PLAN 20
N001  3  0.41096  0.10655  0.56515 11.00000  0.00010  10.14
N002  3  0.63162  0.58554  0.63786 11.00000  0.02019   9.86
O003  4  0.54441  0.30597  0.34642 11.00000  0.02981   9.40
O004  4  0.44150  0.47983  0.46147 11.00000  0.02091   9.04
N005  3  0.31295  0.25688  0.71963 11.00000  0.01690   8.43
O006  4  0.79257  0.49096  0.61882 11.00000  0.02537   8.27
O007  4  0.85099  0.23520  0.31324 11.00000  0.00969   8.09
O008  4  0.76513  0.39785  0.52151 11.00000  0.03150   7.83
O009  4  0.58723  0.14498  0.17532 11.00000  0.03551   7.27
C00A  1  0.43770  0.59223  0.55412 11.00000  0.04289   6.85
O00B  4  0.32962 -0.17440  0.28511 11.00000  0.00633   6.84
C00C  1  0.65366  0.67649  0.73765 11.00000  0.03992   6.47
O00D  4  0.14901  0.24309  0.69265 11.00000  0.03545   5.89
C00E  1  0.40043  0.34756  0.82468 11.00000  0.01384   5.18
C00F  1  0.67083  0.23072  0.27984 11.00000  0.01057   4.87
C00G  1  0.44435  0.20410  0.66765 11.00000  0.00792   4.78
C00H  1  0.22840  0.01858  0.40092 11.00000  0.01109   4.71
C00I  1  0.53369 -0.07459  0.44944 11.00000  0.00010   4.26
C00J  1  0.24286  0.11091  0.49115 11.00000  0.01449   3.87
C00K  1  0.36744 -0.07658  0.37549 11.00000  0.02437   3.59
C00L  1  0.56357 -0.00197  0.54733 11.00000  0.03461   3.06
HKLF 4
END
