TITL SP14R08_expF_1_2_expS_0_9_SP14R08_c.res in P2(1)
REM Old TITL SP14R08 in P2(1)/n
REM SHELXT solution in P2(1): R1 0.248, Rweak 0.041, Alpha 0.098
REM <I/s>   2.153 for    6 systematic absences,  Orientation as input
REM Formula found by SHELXT:  C16 N4 O2

CELL  0.71073   7.0200   9.2700  11.5600   90.000   97.670   90.000
ZERR   16.000   0.0014   0.0019   0.0023    0.000    0.030    0.000
LATT -1
SYMM -X, 1/2+Y, -Z
SFAC C H N O
UNIT 16 16 16 16
L.S. 10
BOND
LIST 6
FMAP 2
PLAN 20
O001  4  1.10495  0.23278  0.06204 11.00000  0.03406   7.06
N002  3  0.70700  0.57422  0.30621 11.00000  0.03271   7.04
N003  3  0.53170  0.51001  0.85982 11.00000  0.03910   6.85
N004  3  0.90906  0.67134  0.46994 11.00000  0.03731   6.77
N005  3  0.83374  0.38852  0.19073 11.00000  0.02630   6.68
C006  1  0.93135  0.23271  0.03146 11.00000  0.02364   6.51
C007  1  0.30398  0.70350  0.59024 11.00000  0.03055   6.42
C008  1  0.68814  0.47165  0.21132 11.00000  0.03253   6.40
C009  1  0.34456  0.85093  0.42630 11.00000  0.03441   6.33
C00A  1  0.88301  0.57364  0.38107 11.00000  0.03205   6.05
C00B  1  0.79905  0.30407  0.08949 11.00000  0.02272   5.99
C00C  1  0.51130  0.59691  0.76198 11.00000  0.02807   5.79
C00D  1  0.41710  0.32392  0.97339 11.00000  0.02383   5.58
C00E  1  0.38328  0.41187  0.87963 11.00000  0.03222   5.46
C00F  1  1.00614  0.38462  0.26632 11.00000  0.03393   5.42
C00G  1  0.42698  0.75734  0.52722 11.00000  0.03725   5.35
C00H  1  1.03209  0.48360  0.35999 11.00000  0.03922   5.30
C00I  1  0.34200  0.60099  0.68322 11.00000  0.04734   5.24
O00J  4  0.59659  0.73716  0.55404 11.00000  0.05918   5.15
C00K  1  0.22299  0.41420  0.80396 11.00000  0.05054   4.93
C00L  1  0.19215  0.50064  0.70720 11.00000  0.03292   4.72
C00M  1  0.83960  0.14907 -0.07271 11.00000  0.03575   4.12
HKLF 4
END
