TITL SP14R08_expF_0_6_expS_1_3_SP14R08_a.res in P2(1)/n
REM Old TITL SP14R08 in P2(1)/n
REM SHELXT solution in P2(1)/n: R1 0.294, Rweak 0.147, Alpha 0.147
REM <I/s>   1.196 for  107 systematic absences,  Orientation as input
REM Formula found by SHELXT:  C10 O

CELL  0.71073   7.0200   9.2700  11.5600   90.000   97.670   90.000
ZERR   16.000   0.0014   0.0019   0.0023    0.000    0.030    0.000
LATT  1
SYMM 1/2-X, 1/2+Y, 1/2-Z
SFAC C H N O
UNIT 16 16 16 16
L.S. 10
BOND
LIST 6
FMAP 2
PLAN 20
C001  1  0.55140  0.45001  0.33880 11.00000  0.01246   6.48
C002  1  0.68010  0.51328  0.27921 11.00000  0.01626   6.37
O003  4  0.85107  0.50616  0.30876 11.00000  0.02633   6.32
C004  1  0.66621  0.07427  0.72182 11.00000  0.01365   5.99
C005  1  0.63212  0.17098  0.62927 11.00000  0.01849   5.92
C006  1  0.78174  0.26399  0.61102 11.00000  0.01711   5.87
C007  1  0.58813  0.35691  0.43778 11.00000  0.01868   5.86
C008  1  0.59252  0.60044  0.17723 11.00000  0.01661   5.60
C009  1  0.45900  0.17092  0.55448 11.00000  0.02210   5.49
C00A  1  0.75860  0.35770  0.51489 11.00000  0.01689   5.46
C00B  1  0.43826  0.26409  0.45919 11.00000  0.01968   5.36
HKLF 4
END
