TITL SP14R08_expF_1_5_expS_0_9_SP14R08_b.res in Pn
REM Old TITL SP14R08 in P2(1)/n
REM SHELXT solution in Pn: R1 0.292, Rweak 0.019, Alpha 0.010
REM <I/s>   1.813 for  101 systematic absences,  Orientation as input
REM Formula found by SHELXT:  C17 N2 O3

CELL  0.71073   7.0200   9.2700  11.5600   90.000   97.670   90.000
ZERR   16.000   0.0014   0.0019   0.0023    0.000    0.030    0.000
LATT -1
SYMM 1/2+X, -Y, 1/2+Z
SFAC C H N O
UNIT 16 16 16 16
L.S. 10
BOND
LIST 6
FMAP 2
PLAN 20
O001  4  0.04842  0.30240  0.33738 11.00000  0.06381   7.65
N002  3  0.08879  0.39389  0.43653 11.00000  0.04890   7.53
N003  3  0.28125  0.48693  0.60782 11.00000  0.05522   7.29
O004  4  0.64527  0.25875  0.68898 11.00000  0.04216   6.82
C005  1  0.16277  0.67441  0.72142 11.00000  0.03570   6.46
C006  1 -0.03287  0.58300  0.55223 11.00000  0.03805   6.37
C007  1  0.86912 -0.07633  0.36901 11.00000  0.04250   6.37
C008  1  0.83614 -0.17258  0.27578 11.00000  0.03488   6.33
C009  1  0.09567  0.15206  0.17757 11.00000  0.04709   6.31
C00A  1  1.05937  0.01413  0.53884 11.00000  0.04908   6.20
C00B  1  0.27073  0.39309  0.51976 11.00000  0.04202   6.10
C00C  1  0.18118  0.23932  0.28018 11.00000  0.04319   5.95
C00D  1  0.82687  0.26513  0.71945 11.00000  0.04631   5.64
C00E  1  1.03899 -0.07831  0.43844 11.00000  0.05992   5.56
C00F  1 -0.05937  0.48346  0.45898 11.00000  0.04563   5.06
C00G  1  0.75180  0.10592  0.49073 11.00000  0.04186   5.05
O00H  4  0.34229  0.24733  0.30360 11.00000  0.08420   5.03
C00I  1  0.71497  0.01265  0.38980 11.00000  0.04572   4.94
C00J  1  0.13522  0.58533  0.63010 11.00000  0.04893   4.84
C00K  1  0.94389  0.20055  0.65850 11.00000  0.03646   4.62
C00L  1  0.91214  0.10496  0.56052 11.00000  0.04504   4.37
C00M  1  0.91422  0.35264  0.82243 11.00000  0.05787   4.06
HKLF 4
END
