TITL SP14R08_expF_1_3_expS_0_6_SP14R08_b.res in P2(1)
REM Old TITL SP14R08 in P2(1)/n
REM SHELXT solution in P2(1): R1 0.250, Rweak 0.136, Alpha 0.227
REM <I/s>   1.842 for    6 systematic absences,  Orientation as input
REM Formula found by SHELXT:  C15 N2 O4

CELL  0.71073   7.0200   9.2700  11.5600   90.000   97.670   90.000
ZERR   16.000   0.0014   0.0019   0.0023    0.000    0.030    0.000
LATT -1
SYMM -X, 1/2+Y, -Z
SFAC C H N O
UNIT 16 16 16 16
L.S. 10
BOND
LIST 6
FMAP 2
PLAN 20
O001  4  0.49081  0.61075  0.23470 11.00000  0.00010   9.04
C002  1  0.07106  0.24281  0.96676 11.00000  0.00871   7.50
O003  4  0.58187  0.33781  0.02415 11.00000  0.03323   7.35
N004  3  0.20191  0.30378  0.90947 11.00000  0.01976   7.13
O005  4  0.39837  0.76140  0.43881 11.00000  0.02775   6.94
N006  3  0.16254  0.41410  0.81393 11.00000  0.02089   6.69
C007  1  0.31221  0.49623  0.78975 11.00000  0.01626   6.46
C008  1  0.15781  0.14997  1.07104 11.00000  0.01871   6.38
O009  4 -0.10360  0.24745  0.94129 11.00000  0.02705   6.18
C00A  1  0.61424  0.41945  0.12021 11.00000  0.01978   6.10
C00B  1 -0.03028  0.48436  0.64127 11.00000  0.02079   6.04
C00C  1  0.29021  0.58728  0.69818 11.00000  0.02033   6.02
C00D  1  0.46857  0.51500  0.13698 11.00000  0.01481   5.99
C00E  1  0.11841  0.57807  0.62025 11.00000  0.01305   5.86
C00F  1  0.69340  0.70599  0.41184 11.00000  0.01168   5.82
C00G  1  0.79097  0.42841  0.19289 11.00000  0.02317   5.54
C00H  1  0.66019  0.62822  0.30887 11.00000  0.01192   5.51
C00I  1  0.65801  0.85003  0.57407 11.00000  0.01514   4.80
C00J  1  0.08546  0.68891  0.53066 11.00000  0.00689   4.63
C00K  1  0.57185  0.77013  0.47419 11.00000  0.02260   4.57
C00L  1  0.80990  0.52581  0.29178 11.00000  0.02261   4.43
HKLF 4
END
