TITL SP14R08_expF_1_5_expS_0_8_SP14R08_a.res in P2(1)/n
REM Old TITL SP14R08 in P2(1)/n
REM SHELXT solution in P2(1)/n: R1 0.282, Rweak 0.030, Alpha 0.067
REM <I/s>   1.620 for  107 systematic absences,  Orientation as input
REM Formula found by SHELXT:  C10 O

CELL  0.71073   7.0200   9.2700  11.5600   90.000   97.670   90.000
ZERR   16.000   0.0014   0.0019   0.0023    0.000    0.030    0.000
LATT  1
SYMM 1/2-X, 1/2+Y, 1/2-Z
SFAC C H N O
UNIT 16 16 16 16
L.S. 10
BOND
LIST 6
FMAP 2
PLAN 20
C001  1  0.55107  0.55225  0.34005 11.00000  0.03024   6.46
C002  1  0.66240  0.92436  0.72164 11.00000  0.02727   6.38
C003  1  0.67927  0.48781  0.27909 11.00000  0.03362   6.15
C004  1  0.78245  0.73713  0.60948 11.00000  0.03517   6.09
O005  4  0.85105  0.49425  0.30891 11.00000  0.05335   6.06
C006  1  0.58766  0.64445  0.43866 11.00000  0.03334   5.99
C007  1  0.46297  0.82923  0.55621 11.00000  0.03904   5.83
C008  1  0.63323  0.83013  0.62970 11.00000  0.03514   5.77
C009  1  0.75973  0.64390  0.51412 11.00000  0.03465   5.70
C00A  1  0.44052  0.73604  0.46015 11.00000  0.03777   5.59
C00B  1  0.59185  0.40080  0.17661 11.00000  0.03871   5.41
HKLF 4
END
