TITL SP14R08_expF_1_4_expS_0_7_SP14R08_c.res in P2(1)
REM Old TITL SP14R08 in P2(1)/n
REM SHELXT solution in P2(1): R1 0.242, Rweak 0.061, Alpha 0.123
REM <I/s>   2.322 for    6 systematic absences,  Orientation as input
REM Formula found by SHELXT:  C17 N3 O2

CELL  0.71073   7.0200   9.2700  11.5600   90.000   97.670   90.000
ZERR   16.000   0.0014   0.0019   0.0023    0.000    0.030    0.000
LATT -1
SYMM -X, 1/2+Y, -Z
SFAC C H N O
UNIT 16 16 16 16
L.S. 10
BOND
LIST 6
FMAP 2
PLAN 20
N001  3  0.83338  0.39308  0.19028 11.00000  0.01663   7.94
N002  3  0.79831  0.30917  0.08572 11.00000  0.03406   6.98
N003  3  1.03404  0.48349  0.36028 11.00000  0.04203   6.59
C004  1  0.92797  0.23628  0.03151 11.00000  0.02314   6.38
O005  4  1.10295  0.23589  0.06016 11.00000  0.04956   6.22
C006  1  0.68672  0.48513  0.21126 11.00000  0.02898   6.22
C007  1  0.41893  0.33303  0.97595 11.00000  0.01641   6.19
C008  1  0.70409  0.58471  0.30420 11.00000  0.02595   5.97
C009  1  0.91012  0.68129  0.46833 11.00000  0.02634   5.84
C00A  1  0.51316  0.59562  0.76331 11.00000  0.02255   5.78
O00B  4  0.60164  0.75069  0.55788 11.00000  0.03749   5.59
C00C  1  0.88116  0.57531  0.37978 11.00000  0.02495   5.56
C00D  1  0.22087  0.42632  0.80719 11.00000  0.03952   5.37
C00E  1  0.38482  0.41481  0.88046 11.00000  0.03557   5.31
C00F  1  0.53091  0.50875  0.85988 11.00000  0.03085   5.25
C00G  1  0.85096  0.14935 -0.06969 11.00000  0.03204   5.24
C00H  1  0.30286  0.70710  0.59237 11.00000  0.02062   5.09
C00I  1  0.33513  0.85065  0.42337 11.00000  0.03055   5.06
C00J  1  0.43138  0.76122  0.52687 11.00000  0.03100   5.02
C00K  1  1.00460  0.37947  0.26588 11.00000  0.02771   5.01
C00L  1  0.19467  0.51658  0.70822 11.00000  0.03649   4.32
C00M  1  0.35142  0.60390  0.68335 11.00000  0.06510   3.36
HKLF 4
END
