TITL SP14R08_expF_1_4_expS_1_1_SP14R08_c.res in P2(1)
REM Old TITL SP14R08 in P2(1)/n
REM SHELXT solution in P2(1): R1 0.361, Rweak 0.015, Alpha 0.039
REM <I/s>   1.103 for    6 systematic absences,  Orientation as input
REM Formula found by SHELXT:  C17 N3 O2

CELL  0.71073   7.0200   9.2700  11.5600   90.000   97.670   90.000
ZERR   16.000   0.0014   0.0019   0.0023    0.000    0.030    0.000
LATT -1
SYMM -X, 1/2+Y, -Z
SFAC C H N O
UNIT 16 16 16 16
L.S. 10
BOND
LIST 6
FMAP 2
PLAN 20
C001  1  0.16179  0.40443  0.81355 11.00000  0.05155   6.61
N002  3  0.09109  0.67998  0.52628 11.00000  0.04806   6.57
N003  3  0.58489  0.33178  0.02781 11.00000  0.04574   6.56
N004  3  0.19630  0.30803  0.90897 11.00000  0.05401   6.50
C005  1 -0.03148  0.49434  0.64118 11.00000  0.04618   6.24
C006  1  0.46611  0.52297  0.14231 11.00000  0.05236   6.21
C007  1  0.28818  0.58894  0.69329 11.00000  0.05531   6.20
C008  1  0.48991  0.61339  0.23536 11.00000  0.04700   6.09
C009  1  0.78661  0.43082  0.19516 11.00000  0.05021   6.03
C00A  1  0.69972  0.70372  0.41177 11.00000  0.03748   5.97
O00B  4 -0.10825  0.24340  0.94116 11.00000  0.06211   5.85
O00C  4  0.40064  0.75649  0.44245 11.00000  0.05674   5.82
C00D  1  0.80635  0.52234  0.28955 11.00000  0.05132   5.80
C00E  1  0.06802  0.24846  0.97069 11.00000  0.04753   5.74
C00F  1  0.11590  0.59044  0.61966 11.00000  0.04611   5.71
C00G  1  0.61959  0.42584  0.12000 11.00000  0.05135   5.65
C00H  1  0.57141  0.77120  0.46758 11.00000  0.04960   5.64
C00I  1  0.30944  0.49157  0.79199 11.00000  0.05176   5.60
C00J  1  0.15833  0.14930  1.07350 11.00000  0.05996   5.59
C00K  1  0.66385  0.61734  0.31245 11.00000  0.03727   5.47
C00L  1 -0.01142  0.39809  0.73567 11.00000  0.04566   5.16
C00M  1  0.66022  0.85070  0.57442 11.00000  0.05151   4.73
HKLF 4
END
