TITL SP14R08_expF_0_9_expS_0_8_SP14R08_b.res in P2(1)
REM Old TITL SP14R08 in P2(1)/n
REM SHELXT solution in P2(1): R1 0.248, Rweak 0.172, Alpha 0.196
REM <I/s>   1.723 for    6 systematic absences,  Orientation as input
REM Formula found by SHELXT:  C14 N3 O5

CELL  0.71073   7.0200   9.2700  11.5600   90.000   97.670   90.000
ZERR   16.000   0.0014   0.0019   0.0023    0.000    0.030    0.000
LATT -1
SYMM -X, 1/2+Y, -Z
SFAC C H N O
UNIT 16 16 16 16
L.S. 10
BOND
LIST 6
FMAP 2
PLAN 20
O001  4  0.69811  0.29418  0.41125 11.00000  0.02038   8.19
O002  4  0.47133  0.46642  0.14020 11.00000  0.02306   8.07
O003  4 -0.10952  0.74251  0.93441 11.00000  0.01581   7.89
O004  4  0.65702  0.14560  0.57195 11.00000  0.01622   7.80
N005  3  0.12039  0.40272  0.62352 11.00000  0.01866   7.65
N006  3  0.30107  0.41473  0.69218 11.00000  0.01457   7.33
N007  3  0.08478  0.32315  0.52202 11.00000  0.00030   6.60
C008  1  0.64005  0.37835  0.31401 11.00000  0.02132   6.47
C009  1  0.06898  0.74587  0.97379 11.00000  0.01189   6.24
C00A  1  0.81167  0.47317  0.29215 11.00000  0.01351   5.86
C00B  1  0.56916  0.21792  0.46727 11.00000  0.01211   5.58
C00C  1 -0.00687  0.58416  0.73478 11.00000  0.01622   5.53
C00D  1  0.58009  0.67799  0.03715 11.00000  0.01409   5.25
C00E  1  0.48940  0.36946  0.23538 11.00000  0.00564   5.21
C00F  1  0.17337  0.59550  0.81146 11.00000  0.00253   5.10
C00G  1  0.19744  0.69510  0.90852 11.00000  0.01295   4.78
C00H  1  0.30722  0.50452  0.78948 11.00000  0.02122   4.76
O00I  4  0.40625  0.22891  0.44732 11.00000  0.03003   4.63
C00J  1  0.78035  0.57438  0.19920 11.00000  0.02730   3.96
C00K  1  0.61383  0.55989  0.11543 11.00000  0.01654   3.82
C00L  1 -0.03628  0.48800  0.63605 11.00000  0.02474   3.76
C00M  1  0.15476  0.85440  1.07311 11.00000  0.03587   3.01
HKLF 4
END
