TITL SP14R08_expF_1_5_expS_0_5_SP14R08_a.res in Pn
REM Old TITL SP14R08 in P2(1)/n
REM SHELXT solution in Pn: R1 0.251, Rweak 0.137, Alpha 0.103
REM <I/s>   1.132 for  101 systematic absences,  Orientation as input
REM Formula found by SHELXT:  C11 N3 O4

CELL  0.71073   7.0200   9.2700  11.5600   90.000   97.670   90.000
ZERR   16.000   0.0014   0.0019   0.0023    0.000    0.030    0.000
LATT -1
SYMM 1/2+X, -Y, 1/2+Z
SFAC C H N O
UNIT 16 16 16 16
L.S. 10
BOND
LIST 6
FMAP 2
PLAN 20
O001  4  0.67581  0.73361  0.23162 11.00000  0.00662  10.31
O002  4  0.44518  0.70124  0.61242 11.00000  0.01029   9.22
N003  3  0.36496  0.42014  0.32146 11.00000  0.00051   9.08
O004  4  0.40887  0.85113  0.77421 11.00000  0.01049   8.83
O005  4  0.23341  0.60943  0.43476 11.00000  0.02139   7.73
C006  1  0.85180  0.74440  0.26184 11.00000  0.00621   7.72
N007  3  0.58261  0.90012  0.38724 11.00000  0.02172   7.31
N008  3  0.46054  1.08091  0.50819 11.00000  0.02702   7.03
C009  1  0.78635  0.98853  0.56509 11.00000  0.01569   6.28
C00A  1  0.33233  0.32676  0.22579 11.00000  0.00628   6.25
C00B  1  0.43509  0.98239  0.41340 11.00000  0.02221   6.20
C00C  1  0.22017  0.51316  0.34436 11.00000  0.01822   6.00
C00D  1  0.66354  1.17307  0.67104 11.00000  0.02088   5.98
C00E  1  0.55312  0.51421  0.49263 11.00000  0.01267   5.55
C00F  1  0.14820  0.75688  0.64339 11.00000  0.01082   5.49
C00G  1  0.74286  0.89534  0.46478 11.00000  0.02553   4.73
C00H  1  0.53688  0.42421  0.40005 11.00000  0.02944   4.62
C00I  1  0.41208  0.61325  0.51147 11.00000  0.02756   4.34
HKLF 4
END
