TITL SP14R08_expF_1_2_expS_1_4_SP14R08_c.res in P2(1)
REM Old TITL SP14R08 in P2(1)/n
REM SHELXT solution in P2(1): R1 0.386, Rweak 0.013, Alpha 0.033
REM <I/s>   1.081 for    6 systematic absences,  Orientation as input
REM Formula found by SHELXT:  C17 N3 O2

CELL  0.71073   7.0200   9.2700  11.5600   90.000   97.670   90.000
ZERR   16.000   0.0014   0.0019   0.0023    0.000    0.030    0.000
LATT -1
SYMM -X, 1/2+Y, -Z
SFAC C H N O
UNIT 16 16 16 16
L.S. 10
BOND
LIST 6
FMAP 2
PLAN 20
N001  3  0.91121  0.67054  0.47264 11.00000  0.06084   6.59
N002  3  0.41517  0.32469  0.97211 11.00000  0.05609   6.58
N003  3  0.71015  0.57816  0.30665 11.00000  0.08076   6.52
C004  1  0.80329  0.30421  0.09111 11.00000  0.05072   6.39
C005  1  0.53252  0.51166  0.85872 11.00000  0.06119   6.28
C006  1  0.33960  0.60611  0.68557 11.00000  0.05837   6.18
C007  1  1.03132  0.48229  0.36030 11.00000  0.06539   6.17
C008  1  0.30286  0.70258  0.58892 11.00000  0.05453   6.14
C009  1  0.83432  0.39480  0.18943 11.00000  0.05459   6.08
C00A  1  0.38116  0.41677  0.87936 11.00000  0.06133   6.08
C00B  1  0.20906  0.42154  0.80565 11.00000  0.06151   5.85
C00C  1  0.51179  0.60711  0.76439 11.00000  0.06057   5.82
O00D  4  1.10693  0.23837  0.05978 11.00000  0.07218   5.79
C00E  1  0.69201  0.48567  0.20848 11.00000  0.05787   5.76
C00F  1  0.92708  0.24163  0.03039 11.00000  0.05998   5.75
C00G  1  0.19255  0.51978  0.71096 11.00000  0.06458   5.74
O00H  4  0.60263  0.75072  0.55682 11.00000  0.07278   5.68
C00I  1  0.42849  0.76505  0.53234 11.00000  0.06152   5.67
C00J  1  1.00629  0.39142  0.26627 11.00000  0.05795   5.57
C00K  1  0.88207  0.57478  0.38128 11.00000  0.05663   5.38
C00L  1  0.33931  0.84927  0.42534 11.00000  0.06212   5.28
C00M  1  0.83987  0.15073 -0.07354 11.00000  0.06942   5.02
HKLF 4
END
