TITL SP14R08_expF_0_5_expS_1_4_SP14R08_a.res in Pn
REM Old TITL SP14R08 in P2(1)/n
REM SHELXT solution in Pn: R1 0.267, Rweak 0.176, Alpha 0.101
REM <I/s>   1.102 for  101 systematic absences,  Orientation as input
REM Formula found by SHELXT:  C13 N O3

CELL  0.71073   7.0200   9.2700  11.5600   90.000   97.670   90.000
ZERR   16.000   0.0014   0.0019   0.0023    0.000    0.030    0.000
LATT -1
SYMM 1/2+X, -Y, 1/2+Z
SFAC C H N O
UNIT 16 16 16 16
L.S. 10
BOND
LIST 6
FMAP 2
PLAN 20
O001  4  0.25195  0.39490  0.47780 11.00000  0.00237   7.95
C002  1  0.32859  0.23471  0.71225 11.00000  0.00010   6.76
N003  3  0.22659  0.48719  0.38250 11.00000  0.00433   6.62
C004  1  0.46685 -0.08014  0.54742 11.00000  0.00650   6.48
O005  4  0.33916  0.67908  0.26580 11.00000  0.03564   6.48
C006  1  0.57123  0.48272  0.53200 11.00000  0.00437   6.21
O007  4  0.14593  0.24849  0.67564 11.00000  0.02165   6.16
C008  1  0.45232  0.30356  0.65143 11.00000  0.00420   5.93
C009  1  0.42051  0.14929  0.82266 11.00000  0.01734   5.68
C00A  1  0.41796  0.39646  0.55874 11.00000  0.01866   5.44
C00B  1  0.37397  0.58534  0.36326 11.00000  0.01048   5.24
C00C  1  0.85407  0.26536  0.29877 11.00000  0.00452   4.74
C00D  1  0.56096  0.20555  0.33087 11.00000  0.02026   4.27
C00E  1  0.60585  0.35367  0.17734 11.00000  0.01431   4.21
C00F  1  0.64209 -0.07142  0.62177 11.00000  0.03400   4.04
C00G  1  0.59462  0.11321  0.43917 11.00000  0.02222   3.58
C00H  1  0.66832 -0.17431  0.71043 11.00000  0.01183   3.39
HKLF 4
END
