TITL SP14R08_expF_0_6_expS_1_2_SP14R08_b.res in P2(1)
REM Old TITL SP14R08 in P2(1)/n
REM SHELXT solution in P2(1): R1 0.246, Rweak 0.168, Alpha 0.220
REM <I/s>   1.719 for    6 systematic absences,  Orientation as input
REM Formula found by SHELXT:  C13 N4 O5

CELL  0.71073   7.0200   9.2700  11.5600   90.000   97.670   90.000
ZERR   16.000   0.0014   0.0019   0.0023    0.000    0.030    0.000
LATT -1
SYMM -X, 1/2+Y, -Z
SFAC C H N O
UNIT 16 16 16 16
L.S. 10
BOND
LIST 6
FMAP 2
PLAN 20
N001  3  0.12173  0.42450  0.61641 11.00000  0.01094   8.32
O002  4  0.15531  0.84969  1.07012 11.00000  0.02132   8.04
O003  4  0.19660  0.69346  0.91123 11.00000  0.01654   7.58
O004  4 -0.09218  0.75816  0.94511 11.00000  0.02568   7.53
N005  3  0.30805  0.50254  0.79362 11.00000  0.01063   7.22
N006  3  0.28069  0.40713  0.69732 11.00000  0.01719   6.91
N007  3  0.46321  0.48966  0.13789 11.00000  0.02610   6.79
C008  1  0.48774  0.39284  0.23527 11.00000  0.00976   6.29
C009  1  0.07314  0.75498  0.96713 11.00000  0.01289   6.29
O00A  4  0.58778  0.66050  0.02140 11.00000  0.00631   6.25
C00B  1  0.08158  0.30283  0.53975 11.00000  0.01514   6.12
C00C  1  0.56566  0.22921  0.47438 11.00000  0.01171   6.07
C00D  1  0.66006  0.38094  0.31120 11.00000  0.00515   6.05
C00E  1  0.16696  0.59311  0.81182 11.00000  0.02266   5.91
O00F  4  0.38835  0.24417  0.43746 11.00000  0.01492   5.64
C00G  1 -0.02835  0.51752  0.63926 11.00000  0.00856   5.53
C00H  1  0.69695  0.29275  0.40820 11.00000  0.02160   5.16
C00I  1  0.80699  0.56015  0.19423 11.00000  0.02055   5.00
C00J  1 -0.00362  0.60689  0.73545 11.00000  0.01388   4.72
C00K  1  0.81429  0.46807  0.28386 11.00000  0.03272   4.14
C00L  1  0.66025  0.15031  0.57482 11.00000  0.02706   3.64
C00M  1  0.61037  0.58586  0.12598 11.00000  0.02305   3.32
HKLF 4
END
