TITL SP14R08_expF_1_1_expS_0_5_SP14R08_a.res in Pn
REM Old TITL SP14R08 in P2(1)/n
REM SHELXT solution in Pn: R1 0.259, Rweak 0.310, Alpha 0.197
REM <I/s>   1.045 for   97 systematic absences,  Orientation as input
REM Formula found by SHELXT:  C9 N5 O6

CELL  0.71073   7.0200   9.2700  11.5600   90.000   97.670   90.000
ZERR   16.000   0.0014   0.0019   0.0023    0.000    0.030    0.000
LATT -1
SYMM 1/2+X, -Y, 1/2+Z
SFAC C H N O
UNIT 16 16 16 16
L.S. 10
BOND
LIST 6
FMAP 2
PLAN 20
N001  3  0.86868  0.42064  0.36825 11.00000  0.00010   9.83
O002  4  0.35090  0.73912  0.30798 11.00000  0.00332   9.67
O003  4  0.73954  0.60982  0.48063 11.00000  0.00010   9.54
O004  4  1.05501  0.51324  0.53799 11.00000  0.00010   8.10
O005  4  0.90157  0.84466  0.82191 11.00000  0.00366   8.08
O006  4  0.08451  0.90990  0.44170 11.00000  0.04671   7.51
N007  3  0.96478  0.70461  0.66087 11.00000  0.00638   7.35
C008  1  0.72045  0.50291  0.38182 11.00000  0.00777   6.90
N009  3  0.83918  0.31977  0.27760 11.00000  0.00010   6.77
C00A  1  0.17967  0.73675  0.28480 11.00000  0.00688   6.73
C00B  1  0.06879  0.79983  0.34046 11.00000  0.00010   6.31
N00C  3 -0.05501  1.08939  0.54939 11.00000  0.01582   6.23
C00D  1  0.81739  0.76706  0.72456 11.00000  0.00385   5.67
N00E  3  0.16987  1.16788  0.72021 11.00000  0.03187   5.64
C00F  1  0.28339  0.97719  0.60589 11.00000  0.00529   4.94
C00G  1  0.64036  0.75704  0.68660 11.00000  0.00966   4.80
C00H  1  0.91101  0.61459  0.56001 11.00000  0.00334   3.85
C00I  1  0.07259  0.63848  0.17809 11.00000  0.02902   3.82
O00J  4  0.59200  0.56563  0.31963 11.00000  0.18277   3.45
C00K  1  1.03975  0.44208  0.43498 11.00000  0.02081   3.25
HKLF 4
END
