TITL SP14R08_expF_0_7_expS_1_1_SP14R08_b.res in Pn
REM Old TITL SP14R08 in P2(1)/n
REM SHELXT solution in Pn: R1 0.243, Rweak 0.125, Alpha 0.109
REM <I/s>   1.150 for  101 systematic absences,  Orientation as input
REM Formula found by SHELXT:  C8 N4 O7

CELL  0.71073   7.0200   9.2700  11.5600   90.000   97.670   90.000
ZERR   16.000   0.0014   0.0019   0.0023    0.000    0.030    0.000
LATT -1
SYMM 1/2+X, -Y, 1/2+Z
SFAC C H N O
UNIT 16 16 16 16
L.S. 10
BOND
LIST 6
FMAP 2
PLAN 20
N001  3  0.63235  0.42244  0.62875 11.00000  0.00010   9.99
O002  4  0.44172  0.51545  0.45952 11.00000  0.00702   9.67
O003  4  0.75747  0.60698  0.51417 11.00000  0.00287   8.70
N004  3  0.31953  0.74376  0.71911 11.00000  0.02231   8.63
O005  4  0.40880  0.89663  0.55915 11.00000  0.03440   8.27
O006  4  0.43593  0.79628  0.65401 11.00000  0.01869   8.26
O007  4  0.21108  0.98249  0.39005 11.00000  0.03653   7.55
N008  3  0.59902  0.84679  0.17691 11.00000  0.01305   7.00
O009  4  0.85144  0.75679  0.30531 11.00000  0.02061   6.80
O00A  4  0.14856  0.74270  0.68465 11.00000  0.02784   6.79
N00B  3  0.65823  0.32316  0.72083 11.00000  0.00701   6.58
C00C  1  0.33053  1.17206  0.27692 11.00000  0.01690   6.50
C00D  1  0.53717  0.69549  0.33262 11.00000  0.01294   6.15
C00E  1  0.46096  0.42213  0.55538 11.00000  0.02805   5.84
C00F  1  0.41932  0.63977  0.82309 11.00000  0.02241   5.19
C00G  1  0.54119  1.07998  0.44463 11.00000  0.01790   5.18
C00H  1  0.77542  0.50994  0.61172 11.00000  0.01942   4.88
C00I  1  0.68068  0.77000  0.27946 11.00000  0.00696   4.46
C00J  1  0.58481  0.61440  0.43667 11.00000  0.01544   4.30
HKLF 4
END
