TITL SP14R08_expF_0_8_expS_0_6_SP14R08_a.res in Pn
REM Old TITL SP14R08 in P2(1)/n
REM SHELXT solution in Pn: R1 0.268, Rweak 0.397, Alpha 0.199
REM <I/s>   1.014 for   97 systematic absences,  Orientation as input
REM Formula found by SHELXT:  C13 N2 O6

CELL  0.71073   7.0200   9.2700  11.5600   90.000   97.670   90.000
ZERR   16.000   0.0014   0.0019   0.0023    0.000    0.030    0.000
LATT -1
SYMM 1/2+X, -Y, 1/2+Z
SFAC C H N O
UNIT 16 16 16 16
L.S. 10
BOND
LIST 6
FMAP 2
PLAN 20
O001  4  0.37674  0.41917  0.92610 11.00000  0.00010  11.14
N002  3  0.66971  0.11326  0.36056 11.00000  0.00010  10.58
O003  4  0.46575  0.01315  0.18763 11.00000  0.00010  10.20
O004  4  0.69555  0.19861  0.46027 11.00000  0.02848   9.26
C005  1  0.56668  0.25923  0.52540 11.00000  0.00010   9.24
O006  4  0.59955  0.75656  0.60671 11.00000  0.00010   8.74
O007  4  0.58226 -0.18158  0.07390 11.00000  0.00010   7.26
N008  3  0.65025  0.34712  0.61330 11.00000  0.00905   6.87
C009  1  0.19117  0.51035  0.75791 11.00000  0.00010   6.29
C00A  1  0.79600 -0.08695  0.26121 11.00000  0.01321   5.95
C00B  1  0.48890  0.11403  0.27861 11.00000  0.00010   5.27
C00C  1  0.42269  0.77249  0.58770 11.00000  0.00010   5.21
O00D  4  0.37902  0.25101  0.47625 11.00000  0.08767   4.98
C00E  1  0.80883  0.01876  0.34068 11.00000  0.02190   4.96
C00F  1  0.30012  0.70301  0.64283 11.00000  0.00010   4.80
C00G  1  0.19578  0.42708  0.86360 11.00000  0.01996   4.73
C00H  1  0.33645  0.85350  0.47634 11.00000  0.00226   4.24
C00I  1  0.52941  0.33164  0.70958 11.00000  0.06539   3.78
C00J  1  0.39497  0.27654  0.32590 11.00000  0.10149   3.26
C00K  1  0.35362  0.59585  0.73143 11.00000  0.02317   3.21
C00L  1  0.50291  0.58700  0.80332 11.00000  0.01574   3.04
HKLF 4
END
