TITL SP14R08_expF_0_6_expS_1_5_SP14R08_b.res in Pn
REM Old TITL SP14R08 in P2(1)/n
REM SHELXT solution in Pn: R1 0.241, Rweak 0.077, Alpha 0.079
REM <I/s>   1.251 for  101 systematic absences,  Orientation as input
REM Formula found by SHELXT:  C16 N4 O

CELL  0.71073   7.0200   9.2700  11.5600   90.000   97.670   90.000
ZERR   16.000   0.0014   0.0019   0.0023    0.000    0.030    0.000
LATT -1
SYMM 1/2+X, -Y, 1/2+Z
SFAC C H N O
UNIT 16 16 16 16
L.S. 10
BOND
LIST 6
FMAP 2
PLAN 20
C001  1  0.17097  0.23682  0.28704 11.00000  0.00287   8.94
N002  3  0.86064 -0.07081  0.36809 11.00000  0.03220   7.49
N003  3  0.07483  0.39296  0.44148 11.00000  0.04659   7.42
N004  3  0.94426  0.19992  0.66654 11.00000  0.02525   7.08
N005  3  0.71456  0.01257  0.39852 11.00000  0.02421   6.76
C006  1  0.73494  0.11204  0.49240 11.00000  0.03180   6.41
C007  1  0.82885 -0.16907  0.28077 11.00000  0.01643   6.03
C008  1  0.64086  0.26452  0.69859 11.00000  0.01831   5.83
C009  1 -0.05333  0.56948  0.56569 11.00000  0.04061   5.72
O00A  4  0.34446  0.25288  0.31887 11.00000  0.04325   5.55
C00B  1  0.89438  0.35316  0.82419 11.00000  0.02211   5.50
C00C  1  0.15583  0.67845  0.72500 11.00000  0.02887   5.32
C00D  1 -0.05944  0.48121  0.46206 11.00000  0.03761   5.26
C00E  1  1.05944  0.01152  0.54596 11.00000  0.02506   5.23
C00F  1  1.02365 -0.08435  0.45390 11.00000  0.02383   4.89
C00G  1  0.04670  0.30183  0.34684 11.00000  0.03180   4.78
C00H  1  0.28148  0.48578  0.62060 11.00000  0.04592   4.49
C00I  1  0.07374  0.14958  0.17581 11.00000  0.04024   4.40
C00J  1  0.25087  0.39929  0.52066 11.00000  0.02631   4.02
C00K  1  0.12780  0.58773  0.62959 11.00000  0.03008   3.54
C00L  1  0.89940  0.10751  0.56482 11.00000  0.02319   3.35
HKLF 4
END
