TITL SP14R08_expF_1_4_expS_0_5_SP14R08_a.res in Pn
REM Old TITL SP14R08 in P2(1)/n
REM SHELXT solution in Pn: R1 0.255, Rweak 0.184, Alpha 0.091
REM <I/s>   1.103 for  101 systematic absences,  Orientation as input
REM Formula found by SHELXT:  C9 N2 O9

CELL  0.71073   7.0200   9.2700  11.5600   90.000   97.670   90.000
ZERR   16.000   0.0014   0.0019   0.0023    0.000    0.030    0.000
LATT -1
SYMM 1/2+X, -Y, 1/2+Z
SFAC C H N O
UNIT 16 16 16 16
L.S. 10
BOND
LIST 6
FMAP 2
PLAN 20
N001  3  0.40178  0.89245  0.56966 11.00000  0.00010  10.67
O002  4  0.84940  0.75319  0.31860 11.00000  0.01453  10.13
N003  3  0.62015  0.42223  0.63696 11.00000  0.00010   9.91
O004  4  0.20246  0.98639  0.39835 11.00000  0.01628   8.58
O005  4  0.44158  0.79931  0.67673 11.00000  0.01549   8.37
O006  4  0.32665  1.16746  0.28191 11.00000  0.01643   8.21
O007  4  0.57112  0.84948  0.18015 11.00000  0.01400   7.62
O008  4  0.52538  1.08273  0.45522 11.00000  0.01716   7.53
C009  1  0.30984  0.74208  0.72935 11.00000  0.00170   6.72
C00A  1  0.43431  0.52028  0.46571 11.00000  0.01406   5.94
C00B  1  0.66722  0.77176  0.29102 11.00000  0.01540   5.93
C00C  1  0.75394  0.60229  0.51739 11.00000  0.01300   5.83
O00D  4  0.54775  0.69763  0.35695 11.00000  0.02172   5.79
C00E  1  0.54949  0.99375  0.54384 11.00000  0.01221   5.52
C00F  1  0.38244  0.64207  0.81985 11.00000  0.02202   5.33
C00G  1  0.23552  0.88746  0.48557 11.00000  0.01144   5.17
C00H  1  0.76200  0.51787  0.61869 11.00000  0.03184   4.16
O00I  4  0.65651  0.31212  0.72347 11.00000  0.04028   4.07
O00J  4  0.15060  0.73871  0.70008 11.00000  0.02465   3.66
C00K  1  0.42732  0.43126  0.56590 11.00000  0.05950   3.45
HKLF 4
END
