TITL SP14R08_expF_0_9_expS_1_2_SP14R08_c.res in P2(1)
REM Old TITL SP14R08 in P2(1)/n
REM SHELXT solution in P2(1): R1 0.249, Rweak 0.041, Alpha 0.148
REM <I/s>   1.947 for    6 systematic absences,  Orientation as input
REM Formula found by SHELXT:  C15 N4 O3

CELL  0.71073   7.0200   9.2700  11.5600   90.000   97.670   90.000
ZERR   16.000   0.0014   0.0019   0.0023    0.000    0.030    0.000
LATT -1
SYMM -X, 1/2+Y, -Z
SFAC C H N O
UNIT 16 16 16 16
L.S. 10
BOND
LIST 6
FMAP 2
PLAN 20
O001  4  0.30529  0.68725  0.58928 11.00000  0.03908   8.07
O002  4  1.09777  0.23919  0.05554 11.00000  0.03594   7.67
N003  3  0.91300  0.67566  0.47220 11.00000  0.02316   7.16
N004  3  0.18941  0.50095  0.70956 11.00000  0.03846   7.02
N005  3  1.03461  0.48830  0.36006 11.00000  0.04263   6.98
N006  3  0.71286  0.56941  0.30478 11.00000  0.02828   6.77
C007  1  0.42808  0.75610  0.52670 11.00000  0.02870   6.27
C008  1  0.34542  0.60075  0.68832 11.00000  0.03041   6.13
C009  1  1.00419  0.39091  0.26438 11.00000  0.03212   6.09
C00A  1  0.83050  0.38689  0.18760 11.00000  0.02668   6.07
C00B  1  0.41593  0.33089  0.97266 11.00000  0.03124   5.95
C00C  1  0.34707  0.85258  0.43204 11.00000  0.04254   5.91
C00D  1  0.92996  0.23129  0.03410 11.00000  0.02851   5.89
C00E  1  0.52990  0.51417  0.85979 11.00000  0.02949   5.88
C00F  1  0.87739  0.57735  0.38084 11.00000  0.03503   5.87
C00G  1  0.38679  0.41624  0.87990 11.00000  0.02608   5.83
C00H  1  0.51392  0.60235  0.76421 11.00000  0.02848   5.56
C00I  1  0.79669  0.28886  0.08974 11.00000  0.03043   5.42
O00J  4  0.60522  0.75066  0.56293 11.00000  0.05175   5.28
C00K  1  0.21071  0.40556  0.80578 11.00000  0.05932   5.25
C00L  1  0.83934  0.14742 -0.07605 11.00000  0.02497   5.21
C00M  1  0.69135  0.47213  0.20937 11.00000  0.03254   4.61
HKLF 4
END
