TITL SP14R08_expF_1_4_expS_0_8_SP14R08_a.res in P2(1)/n
REM Old TITL SP14R08 in P2(1)/n
REM SHELXT solution in P2(1)/n: R1 0.274, Rweak 0.036, Alpha 0.094
REM <I/s>   1.506 for  107 systematic absences,  Orientation as input
REM Formula found by SHELXT:  C9 N O

CELL  0.71073   7.0200   9.2700  11.5600   90.000   97.670   90.000
ZERR   16.000   0.0014   0.0019   0.0023    0.000    0.030    0.000
LATT  1
SYMM 1/2-X, 1/2+Y, 1/2-Z
SFAC C H N O
UNIT 16 16 16 16
L.S. 10
BOND
LIST 6
FMAP 2
PLAN 20
N001  3  0.44956  0.44881  0.66097 11.00000  0.03659   6.53
C002  1  0.33654  0.07545  0.27809 11.00000  0.02262   6.42
O003  4  0.15016  0.50590  0.69158 11.00000  0.04732   6.35
C004  1  0.21752  0.26264  0.39075 11.00000  0.03005   6.22
C005  1  0.41216  0.35682  0.56170 11.00000  0.02910   5.98
C006  1  0.53641  0.17007  0.44411 11.00000  0.03504   5.97
C007  1  0.32084  0.51229  0.72093 11.00000  0.02794   5.92
C008  1  0.36665  0.17019  0.36948 11.00000  0.03190   5.72
C009  1  0.24091  0.35702  0.48546 11.00000  0.03051   5.66
C00A  1  0.56059  0.26463  0.54082 11.00000  0.03309   5.65
C00B  1  0.40810  0.60092  0.82344 11.00000  0.03222   5.48
HKLF 4
END
