TITL SP14R08_expF_1_1_expS_1_1_SP14R08_a.res in P2(1)/n
REM Old TITL SP14R08 in P2(1)/n
REM SHELXT solution in P2(1)/n: R1 0.284, Rweak 0.029, Alpha 0.043
REM <I/s>   1.635 for  107 systematic absences,  Orientation as input
REM Formula found by SHELXT:  C10 O

CELL  0.71073   7.0200   9.2700  11.5600   90.000   97.670   90.000
ZERR   16.000   0.0014   0.0019   0.0023    0.000    0.030    0.000
LATT  1
SYMM 1/2-X, 1/2+Y, 1/2-Z
SFAC C H N O
UNIT 16 16 16 16
L.S. 10
BOND
LIST 6
FMAP 2
PLAN 20
C001  1  0.66199  0.92329  0.72201 11.00000  0.02740   6.36
C002  1  0.55136  0.55208  0.33990 11.00000  0.03070   6.36
C003  1  0.78194  0.73781  0.60962 11.00000  0.03524   6.11
C004  1  0.67936  0.48760  0.27910 11.00000  0.03518   6.10
O005  4  0.85111  0.49411  0.30861 11.00000  0.05247   6.05
C006  1  0.58762  0.64426  0.43884 11.00000  0.03369   6.00
C007  1  0.63281  0.83061  0.62977 11.00000  0.03580   5.88
C008  1  0.46295  0.82966  0.55633 11.00000  0.03992   5.83
C009  1  0.75904  0.64291  0.51400 11.00000  0.03491   5.72
C00A  1  0.44022  0.73519  0.46010 11.00000  0.03832   5.55
C00B  1  0.59139  0.40019  0.17681 11.00000  0.03998   5.33
HKLF 4
END
