TITL SP14R08_expF_1_1_expS_0_9_SP14R08_a.res in P2(1)/n
REM Old TITL SP14R08 in P2(1)/n
REM SHELXT solution in P2(1)/n: R1 0.270, Rweak 0.059, Alpha 0.107
REM <I/s>   1.391 for  107 systematic absences,  Orientation as input
REM Formula found by SHELXT:  C10 O

CELL  0.71073   7.0200   9.2700  11.5600   90.000   97.670   90.000
ZERR   16.000   0.0014   0.0019   0.0023    0.000    0.030    0.000
LATT  1
SYMM 1/2-X, 1/2+Y, 1/2-Z
SFAC C H N O
UNIT 16 16 16 16
L.S. 10
BOND
LIST 6
FMAP 2
PLAN 20
C001  1  0.44941  0.55060  0.66079 11.00000  0.02134   6.45
O002  4  0.14866  0.49438  0.69156 11.00000  0.04091   6.26
C003  1  0.33613  0.92495  0.27818 11.00000  0.02109   6.24
C004  1  0.21760  0.73641  0.39011 11.00000  0.02678   6.16
C005  1  0.32090  0.48737  0.72128 11.00000  0.02462   6.11
C006  1  0.41222  0.64364  0.56180 11.00000  0.02657   6.03
C007  1  0.53838  0.82932  0.44454 11.00000  0.03092   5.89
C008  1  0.36700  0.82923  0.36995 11.00000  0.02686   5.75
C009  1  0.24127  0.64304  0.48542 11.00000  0.02608   5.62
C00A  1  0.56125  0.73573  0.54084 11.00000  0.02910   5.58
C00B  1  0.40775  0.39924  0.82323 11.00000  0.02818   5.55
HKLF 4
END
