TITL SP14R08_expF_1_1_expS_1_2_SP14R08_a.res in P2(1)/n
REM Old TITL SP14R08 in P2(1)/n
REM SHELXT solution in P2(1)/n: R1 0.306, Rweak 0.022, Alpha 0.040
REM <I/s>   1.723 for  107 systematic absences,  Orientation as input
REM Formula found by SHELXT:  C10 O

CELL  0.71073   7.0200   9.2700  11.5600   90.000   97.670   90.000
ZERR   16.000   0.0014   0.0019   0.0023    0.000    0.030    0.000
LATT  1
SYMM 1/2-X, 1/2+Y, 1/2-Z
SFAC C H N O
UNIT 16 16 16 16
L.S. 10
BOND
LIST 6
FMAP 2
PLAN 20
C001  1  0.66130  0.07669  0.72229 11.00000  0.03141   6.46
C002  1  0.55189  0.44800  0.33985 11.00000  0.03586   6.42
C003  1  0.78290  0.26201  0.60920 11.00000  0.03987   6.22
O004  4  0.85138  0.50511  0.30866 11.00000  0.05815   6.11
C005  1  0.58841  0.35565  0.43842 11.00000  0.03848   6.03
C006  1  0.46311  0.16981  0.55649 11.00000  0.04502   6.01
C007  1  0.67979  0.51332  0.27901 11.00000  0.04104   5.86
C008  1  0.44085  0.26581  0.46039 11.00000  0.04373   5.75
C009  1  0.76055  0.35761  0.51406 11.00000  0.04117   5.70
C00A  1  0.63198  0.16921  0.63010 11.00000  0.04083   5.69
C00B  1  0.58995  0.59933  0.17701 11.00000  0.04688   5.37
HKLF 4
END
