TITL SP14R08_expF_1_4_expS_1_3_SP14R08_a.res in P2(1)/n
REM Old TITL SP14R08 in P2(1)/n
REM SHELXT solution in P2(1)/n: R1 0.421, Rweak 0.014, Alpha 0.019
REM <I/s>   2.773 for  107 systematic absences,  Orientation as input
REM Formula found by SHELXT:  C9 N O

CELL  0.71073   7.0200   9.2700  11.5600   90.000   97.670   90.000
ZERR   16.000   0.0014   0.0019   0.0023    0.000    0.030    0.000
LATT  1
SYMM 1/2-X, 1/2+Y, 1/2-Z
SFAC C H N O
UNIT 16 16 16 16
L.S. 10
BOND
LIST 6
FMAP 2
PLAN 20
N001  3  0.66193  0.07782  0.72505 11.00000  0.07464   6.67
C002  1  0.45686  0.17410  0.55882 11.00000  0.08788   6.34
C003  1  0.78057  0.26058  0.60868 11.00000  0.07894   6.30
C004  1  0.55183  0.44681  0.34082 11.00000  0.06460   6.23
C005  1  0.58818  0.35510  0.43552 11.00000  0.06810   6.18
C006  1  0.44187  0.26362  0.45916 11.00000  0.07235   5.84
C007  1  0.75455  0.36267  0.51442 11.00000  0.08007   5.79
O008  4  0.85479  0.50150  0.30878 11.00000  0.08785   5.78
C009  1  0.67557  0.51173  0.28332 11.00000  0.07826   5.67
C00A  1  0.62916  0.17402  0.62996 11.00000  0.07035   5.66
C00B  1  0.58841  0.59953  0.17649 11.00000  0.08562   5.33
HKLF 4
END
