TITL SP14R08_expF_0_5_expS_0_9_SP14R08_a.res in Pn
REM Old TITL SP14R08 in P2(1)/n
REM SHELXT solution in Pn: R1 0.283, Rweak 0.431, Alpha 0.219
REM <I/s>   1.001 for   97 systematic absences,  Orientation as input
REM Formula found by SHELXT:  C8 N4 O6

CELL  0.71073   7.0200   9.2700  11.5600   90.000   97.670   90.000
ZERR   16.000   0.0014   0.0019   0.0023    0.000    0.030    0.000
LATT -1
SYMM 1/2+X, -Y, 1/2+Z
SFAC C H N O
UNIT 16 16 16 16
L.S. 10
BOND
LIST 6
FMAP 2
PLAN 20
O001  4  0.08615  0.10796  0.45133 11.00000  0.00010  11.42
O002  4  0.86143  0.58083  0.38168 11.00000  0.00010  11.11
O003  4  0.34819  0.25786  0.32338 11.00000  0.01136   9.37
O004  4  0.83884  0.67319  0.29017 11.00000  0.00010   9.36
N005  3  1.05262  0.48806  0.55111 11.00000  0.00010   6.93
N006  3  0.96195  0.29834  0.67608 11.00000  0.01686   6.75
N007  3  0.05754  0.20120  0.35669 11.00000  0.00520   6.73
C008  1  0.17650  0.26601  0.29113 11.00000  0.00137   6.37
C009  1  0.07655  0.35070  0.17822 11.00000  0.00010   6.27
C00A  1  0.81613  0.22922  0.72892 11.00000  0.01480   6.13
C00B  1  0.89278  0.15343  0.82178 11.00000  0.00010   5.99
C00C  1  0.70808  0.51012  0.40274 11.00000  0.00557   5.70
C00D  1  0.27503  0.02663  0.62774 11.00000  0.00554   5.30
C00E  1  0.26925  0.08121  0.53647 11.00000  0.02427   5.13
N00F  3 -0.05262 -0.08128  0.56090 11.00000  0.00618   4.96
O00G  4  0.64330  0.24580  0.69933 11.00000  0.01536   4.28
C00H  1  0.74548  0.38631  0.50167 11.00000  0.00010   4.27
O00I  4  0.59861  0.50035  0.32170 11.00000  0.21813   4.13
HKLF 4
END
