TITL SP14R08_expF_0_9_expS_1_5_SP14R08_a.res in P2(1)/n
REM Old TITL SP14R08 in P2(1)/n
REM SHELXT solution in P2(1)/n: R1 0.315, Rweak 0.021, Alpha 0.052
REM <I/s>   1.880 for  107 systematic absences,  Orientation as input
REM Formula found by SHELXT:  C10 O

CELL  0.71073   7.0200   9.2700  11.5600   90.000   97.670   90.000
ZERR   16.000   0.0014   0.0019   0.0023    0.000    0.030    0.000
LATT  1
SYMM 1/2-X, 1/2+Y, 1/2-Z
SFAC C H N O
UNIT 16 16 16 16
L.S. 10
BOND
LIST 6
FMAP 2
PLAN 20
C001  1  0.33839  0.07568  0.27759 11.00000  0.03068   6.45
C002  1  0.44727  0.44894  0.66001 11.00000  0.03624   6.42
C003  1  0.21692  0.26297  0.39112 11.00000  0.03987   6.14
O004  4  0.14846  0.50570  0.69120 11.00000  0.05718   6.03
C005  1  0.41106  0.35523  0.56171 11.00000  0.03735   6.02
C006  1  0.32068  0.51288  0.72068 11.00000  0.04063   5.98
C007  1  0.53637  0.17084  0.44397 11.00000  0.04435   5.94
C008  1  0.36860  0.17115  0.37001 11.00000  0.04070   5.78
C009  1  0.23997  0.35666  0.48542 11.00000  0.03995   5.72
C00A  1  0.55896  0.26520  0.53919 11.00000  0.04443   5.70
C00B  1  0.41051  0.59976  0.82335 11.00000  0.04780   5.34
HKLF 4
END
