TITL SP14R08_expF_1_5_expS_0_8_SP14R08_b.res in Pn
REM Old TITL SP14R08 in P2(1)/n
REM SHELXT solution in Pn: R1 0.254, Rweak 0.027, Alpha 0.018
REM <I/s>   1.586 for  101 systematic absences,  Orientation as input
REM Formula found by SHELXT:  C10 N6 O7

CELL  0.71073   7.0200   9.2700  11.5600   90.000   97.670   90.000
ZERR   16.000   0.0014   0.0019   0.0023    0.000    0.030    0.000
LATT -1
SYMM 1/2+X, -Y, 1/2+Z
SFAC C H N O
UNIT 16 16 16 16
L.S. 10
BOND
LIST 6
FMAP 2
PLAN 20
N001  3  0.09047  0.10717  0.43636 11.00000  0.02676   9.73
O002  4 -0.02964 -0.08143  0.55236 11.00000  0.04752   9.31
C003  1  0.17950  0.25694  0.27415 11.00000  0.02832   9.24
N004  3  0.87397  0.58313  0.36911 11.00000  0.03571   8.15
O005  4  0.27650  0.01455  0.60711 11.00000  0.03943   7.87
O006  4  0.05059  0.19941  0.33384 11.00000  0.05031   7.75
O007  4  0.17015 -0.16713  0.72151 11.00000  0.03404   7.70
N008  3  1.05842  0.48664  0.53751 11.00000  0.03914   7.19
O009  4  0.64998  0.24278  0.68357 11.00000  0.03803   6.96
N00A  3  0.84669  0.68010  0.27749 11.00000  0.03758   6.95
N00B  3  0.74078  0.39586  0.48544 11.00000  0.03728   6.83
O00C  4  0.35435  0.25631  0.30067 11.00000  0.05197   6.75
N00D  3  0.94732  0.30194  0.65415 11.00000  0.03021   6.61
C00E  1  0.70908  0.48961  0.38885 11.00000  0.04176   6.44
C00F  1  0.10262  0.34537  0.17609 11.00000  0.03006   6.42
C00G  1  0.92242  0.14314  0.82391 11.00000  0.03677   6.04
C00H  1  0.25809  0.10492  0.51457 11.00000  0.03075   5.89
C00I  1 -0.05842  0.01476  0.45610 11.00000  0.03431   5.55
C00J  1  1.04568  0.57504  0.43858 11.00000  0.04418   4.80
C00K  1  0.82499  0.23193  0.71169 11.00000  0.03192   4.62
C00L  1  0.14042 -0.08034  0.62998 11.00000  0.03279   4.62
C00M  1  0.91761  0.39634  0.56048 11.00000  0.04244   4.26
O00N  4  0.35556  0.18686  0.48813 11.00000  0.22808   3.04
HKLF 4
END
