TITL SP14R08_expF_0_7_expS_0_5_SP14R08_a.res in Pn
REM Old TITL SP14R08 in P2(1)/n
REM SHELXT solution in Pn: R1 0.280, Rweak 0.595, Alpha 0.299
REM <I/s>   0.956 for   97 systematic absences,  Orientation as input
REM Formula found by SHELXT:  C23 N4 O8 Cl6

CELL  0.71073   7.0200   9.2700  11.5600   90.000   97.670   90.000
ZERR   16.000   0.0014   0.0019   0.0023    0.000    0.030    0.000
LATT -1
SYMM 1/2+X, -Y, 1/2+Z
SFAC C H N O CL
UNIT 16 16 16 16 0
L.S. 10
BOND
LIST 6
FMAP 2
PLAN 20
CL01  5  0.36471  0.07343  0.77080 11.00000  0.00010  20.24
CL02  5  0.07881  0.38885  0.33749 11.00000  0.00634  18.19
CL03  5  0.08923  0.15652  0.07693 11.00000  0.01922  15.85
CL04  5  0.33630  0.25532  0.20630 11.00000  0.02354  14.21
CL05  5  0.15659  0.22988  0.16769 11.00000  0.02412  13.77
CL06  5  1.05358  0.03012  0.43679 11.00000  0.02815  12.66
O007  4  0.06851  0.29291  0.23476 11.00000  0.00010  12.41
O008  4  0.22272 -0.01065  0.78257 11.00000  0.00010  11.43
N009  3  0.25279  0.39209  0.41327 11.00000  0.00010  11.30
O00A  4  0.95131  0.19287  0.55785 11.00000  0.00010  11.08
O00B  4  0.15771  0.66052  0.63043 11.00000  0.00010  10.42
C00C  1  0.65620  0.25359  0.59216 11.00000  0.00010  10.38
O00D  4  0.34052  0.17478  0.68539 11.00000  0.00010  10.31
O00E  4 -0.03311  0.58961  0.45282 11.00000  0.00010   8.74
N00F  3  0.23643 -0.11939  0.87912 11.00000  0.00546   7.42
N00G  3  0.31522  0.64424  0.31663 11.00000  0.01389   7.09
C00H  1  0.48213  0.21975  0.67018 11.00000  0.00010   6.10
C00I  1  0.81288  0.25290  0.60604 11.00000  0.00010   5.90
C00J  1 -0.05358  0.48939  0.65300 11.00000  0.00877   5.65
C00K  1  0.77444  0.03557  0.76095 11.00000  0.00010   5.60
C00L  1  0.07802  0.79196  0.61396 11.00000  0.00010   5.38
C00M  1  0.37967  0.48752  0.56560 11.00000  0.00994   5.18
C00N  1  0.99214  0.19278  0.65911 11.00000  0.00010   5.08
C00O  1  0.09239  0.88846  0.62577 11.00000  0.00997   4.94
C00P  1  0.13932  0.48163  0.54130 11.00000  0.00607   4.76
C00Q  1  0.26138 -0.24783  0.88163 11.00000  0.01987   4.75
C00R  1  0.78877  0.09057  0.64132 11.00000  0.00453   4.69
C00S  1  0.32370  0.75454  0.55531 11.00000  0.00855   4.61
C00T  1  0.96166 -0.08547  0.81314 11.00000  0.00722   4.60
C00U  1  0.48430  0.51875  0.68995 11.00000  0.01535   4.58
C00V  1  0.48431  0.43426  0.63246 11.00000  0.04048   4.53
C00W  1  0.16411  0.47275  0.78272 11.00000  0.00963   4.47
O00X  4  0.54767  0.35506  0.50214 11.00000  0.19160   4.43
O00Y  4  0.54906  0.60666  0.47838 11.00000  0.09533   4.42
C00Z  1  0.28407  0.11946  0.92307 11.00000  0.02499   4.33
C010  1  0.99913  0.05676  0.72718 11.00000  0.05442   4.30
C011  1  0.41760  0.49410  0.41544 11.00000  0.05839   4.26
N012  3  0.29678  0.47602  0.49224 11.00000  0.01734   4.22
C013  1  0.16938  0.37592  0.50967 11.00000  0.00660   4.22
C014  1  0.17964  0.54322  0.44716 11.00000  0.00143   4.19
C015  1  0.58539  0.05251  0.51824 11.00000  0.00304   4.18
HKLF 4
END
