TITL SP14R08_expF_0_6_expS_1_4_SP14R08_b.res in P2(1)
REM Old TITL SP14R08 in P2(1)/n
REM SHELXT solution in P2(1): R1 0.243, Rweak 0.110, Alpha 0.193
REM <I/s>   1.969 for    6 systematic absences,  Orientation as input
REM Formula found by SHELXT:  C12 N5 O5

CELL  0.71073   7.0200   9.2700  11.5600   90.000   97.670   90.000
ZERR   16.000   0.0014   0.0019   0.0023    0.000    0.030    0.000
LATT -1
SYMM -X, 1/2+Y, -Z
SFAC C H N O
UNIT 16 16 16 16
L.S. 10
BOND
LIST 6
FMAP 2
PLAN 20
O001  4  0.20147  0.28853  0.90779 11.00000  0.01595   8.56
N002  3  0.11671  0.56724  0.61831 11.00000  0.02621   8.30
N003  3  0.15943  0.38785  0.81099 11.00000  0.01322   8.07
O004  4  0.09423  0.68245  0.52994 11.00000  0.04614   7.76
O005  4  0.39599  0.73824  0.43881 11.00000  0.02207   7.40
N006  3  0.46726  0.50531  0.13755 11.00000  0.02042   6.95
N007  3  0.81181  0.49566  0.29353 11.00000  0.02824   6.91
N008  3  0.15361  0.14607  1.07602 11.00000  0.01530   6.85
C009  1  0.57163  0.75205  0.47629 11.00000  0.01322   6.64
C00A  1  0.30475  0.56903  0.69607 11.00000  0.01516   6.43
C00B  1 -0.00621  0.38681  0.73754 11.00000  0.01799   6.33
C00C  1  0.06922  0.22287  0.96334 11.00000  0.01634   6.07
O00D  4 -0.09724  0.22439  0.94353 11.00000  0.02825   5.78
O00E  4  0.58101  0.32387  0.02633 11.00000  0.01576   5.66
C00F  1 -0.03067  0.47631  0.64367 11.00000  0.02766   5.59
C00G  1  0.48879  0.59675  0.23250 11.00000  0.01574   5.49
C00H  1  0.77430  0.40815  0.19535 11.00000  0.02252   5.36
C00I  1  0.31081  0.46738  0.78780 11.00000  0.01616   5.20
C00J  1  0.69321  0.68624  0.41457 11.00000  0.02661   4.96
C00K  1  0.66133  0.85393  0.56765 11.00000  0.02790   4.80
C00L  1  0.61608  0.40768  0.12170 11.00000  0.01725   4.00
C00M  1  0.66558  0.60464  0.31256 11.00000  0.03594   3.85
HKLF 4
END
