TITL SP14R08_expF_1_4_expS_1_2_SP14R08_a.res in P2(1)/n
REM Old TITL SP14R08 in P2(1)/n
REM SHELXT solution in P2(1)/n: R1 0.404, Rweak 0.015, Alpha 0.023
REM <I/s>   1.997 for  107 systematic absences,  Orientation as input
REM Formula found by SHELXT:  C9 N O

CELL  0.71073   7.0200   9.2700  11.5600   90.000   97.670   90.000
ZERR   16.000   0.0014   0.0019   0.0023    0.000    0.030    0.000
LATT  1
SYMM 1/2-X, 1/2+Y, 1/2-Z
SFAC C H N O
UNIT 16 16 16 16
L.S. 10
BOND
LIST 6
FMAP 2
PLAN 20
N001  3  0.66180  0.07602  0.72236 11.00000  0.05701   6.67
C002  1  0.55245  0.44938  0.34115 11.00000  0.05064   6.33
C003  1  0.78212  0.26271  0.60862 11.00000  0.05986   6.22
C004  1  0.45928  0.17254  0.55705 11.00000  0.06353   6.16
C005  1  0.58822  0.35671  0.43570 11.00000  0.05396   6.11
C006  1  0.67947  0.51266  0.27980 11.00000  0.06065   5.88
O007  4  0.85505  0.50434  0.30872 11.00000  0.07171   5.84
C008  1  0.76003  0.35843  0.51655 11.00000  0.05462   5.79
C009  1  0.63177  0.17347  0.63022 11.00000  0.05559   5.78
C00A  1  0.44143  0.26625  0.46059 11.00000  0.05774   5.74
C00B  1  0.58365  0.59997  0.17569 11.00000  0.06758   5.31
HKLF 4
END
