TITL SP14R08_expF_0_9_expS_0_7_SP14R08_a.res in Pn
REM Old TITL SP14R08 in P2(1)/n
REM SHELXT solution in Pn: R1 0.250, Rweak 0.232, Alpha 0.097
REM <I/s>   1.056 for  101 systematic absences,  Orientation as input
REM Formula found by SHELXT:  C12 N O7

CELL  0.71073   7.0200   9.2700  11.5600   90.000   97.670   90.000
ZERR   16.000   0.0014   0.0019   0.0023    0.000    0.030    0.000
LATT -1
SYMM 1/2+X, -Y, 1/2+Z
SFAC C H N O
UNIT 16 16 16 16
L.S. 10
BOND
LIST 6
FMAP 2
PLAN 20
N001  3  0.41403  0.60845  0.56376 11.00000  0.00010  10.72
O002  4  0.33298  0.32580  0.27977 11.00000  0.00010  10.59
O003  4  0.85258  0.73804  0.31088 11.00000  0.00010  10.31
O004  4  0.61872  1.08282  0.62643 11.00000  0.04333   9.20
O005  4  0.22086  0.51349  0.39138 11.00000  0.01493   8.79
O006  4  0.45647  0.70282  0.67215 11.00000  0.04379   8.15
C007  1  0.67664  0.72682  0.28732 11.00000  0.00908   6.42
C008  1  0.44154  0.98414  0.46012 11.00000  0.01488   6.18
C009  1  0.31843  0.75391  0.72483 11.00000  0.00495   6.11
C00A  1  0.24303  0.60482  0.48563 11.00000  0.00623   6.05
C00B  1  0.40540  0.84368  0.82143 11.00000  0.00806   6.01
C00C  1  0.59622  0.63414  0.17857 11.00000  0.01485   5.89
O00D  4  0.55244  0.79848  0.34719 11.00000  0.01348   5.64
C00E  1  0.45451  1.08902  0.54858 11.00000  0.01419   5.49
C00F  1  0.56624  0.50883  0.54494 11.00000  0.01387   4.97
C00G  1  0.53367  0.43355  0.43702 11.00000  0.01140   4.60
C00H  1  0.76060  0.88343  0.51572 11.00000  0.02461   4.51
C00I  1  0.36024  0.42057  0.36825 11.00000  0.01444   3.88
C00J  1  0.78893  0.98550  0.61543 11.00000  0.03759   3.82
O00K  4  0.14742  0.74561  0.68979 11.00000  0.07870   3.64
HKLF 4
END
