TITL SP14R08_expF_1_5_expS_0_6_SP14R08_a.res in P2(1)/n
REM Old TITL SP14R08 in P2(1)/n
REM SHELXT solution in P2(1)/n: R1 0.274, Rweak 0.093, Alpha 0.123
REM <I/s>   1.297 for  107 systematic absences,  Orientation as input
REM Formula found by SHELXT:  C9 N O

CELL  0.71073   7.0200   9.2700  11.5600   90.000   97.670   90.000
ZERR   16.000   0.0014   0.0019   0.0023    0.000    0.030    0.000
LATT  1
SYMM 1/2-X, 1/2+Y, 1/2-Z
SFAC C H N O
UNIT 16 16 16 16
L.S. 10
BOND
LIST 6
FMAP 2
PLAN 20
N001  3  0.44888  0.44949  0.66115 11.00000  0.02504   6.56
O002  4  0.14952  0.50645  0.69127 11.00000  0.03361   6.36
C003  1  0.32079  0.51211  0.72098 11.00000  0.01882   6.27
C004  1  0.41183  0.35709  0.56163 11.00000  0.02137   6.05
C005  1  0.33501  0.07411  0.27823 11.00000  0.01562   6.04
C006  1  0.21796  0.26401  0.38974 11.00000  0.02114   5.91
C007  1  0.36717  0.17118  0.36989 11.00000  0.02215   5.86
C008  1  0.24110  0.35717  0.48513 11.00000  0.02112   5.79
C009  1  0.56129  0.26440  0.54079 11.00000  0.02359   5.56
C00A  1  0.40784  0.60083  0.82320 11.00000  0.02187   5.51
C00B  1  0.53926  0.17109  0.44472 11.00000  0.02557   5.47
HKLF 4
END
