TITL SP14R08_expF_0_6_expS_0_6_SP14R08_a.res in Pn
REM Old TITL SP14R08 in P2(1)/n
REM SHELXT solution in Pn: R1 0.312, Rweak 0.568, Alpha 0.287
REM <I/s>   0.962 for   97 systematic absences,  Orientation as input
REM Formula found by SHELXT:  C10 N2 O6

CELL  0.71073   7.0200   9.2700  11.5600   90.000   97.670   90.000
ZERR   16.000   0.0014   0.0019   0.0023    0.000    0.030    0.000
LATT -1
SYMM 1/2+X, -Y, 1/2+Z
SFAC C H N O
UNIT 16 16 16 16
L.S. 10
BOND
LIST 6
FMAP 2
PLAN 20
O001  4  0.44524 -0.08245  0.12270 11.00000  0.00010  10.81
O002  4  0.24331  0.25496  0.44711 11.00000  0.00010  10.64
O003  4  0.19174  0.61048  0.69805 11.00000  0.00010   8.51
O004  4  0.19001  0.83798  0.44257 11.00000  0.00010   8.42
O005  4  0.15555  0.70669  0.60680 11.00000  0.00010   8.03
N006  3  0.36823  0.50567  0.86109 11.00000  0.00010   7.05
N007  3  0.66220  0.01525  0.29706 11.00000  0.00010   6.59
C008  1  0.26107  0.76851  0.53548 11.00000  0.00010   6.51
O009  4  0.35692  0.11048  0.23716 11.00000  0.00077   5.83
C00A  1  0.43255 -0.17863  0.02397 11.00000  0.00570   5.50
C00B  1  0.25847  0.32998  0.97603 11.00000  0.00010   5.13
C00C  1  0.41204  0.26947  0.47001 11.00000  0.00010   4.57
C00D  1  0.54104  0.18812  0.43342 11.00000  0.00310   4.14
C00E  1  0.51299  0.37745  0.58533 11.00000  0.00202   4.12
C00F  1  0.34911  0.24646  0.27853 11.00000  0.01868   3.33
C00G  1  0.05733  0.42283  0.80471 11.00000  0.00010   3.23
C00H  1  0.64622  0.41971  0.81787 11.00000  0.06592   3.21
C00I  1  0.94267  0.03433  0.30926 11.00000  0.05694   3.14
HKLF 4
END
