TITL SP14R08_expF_0_7_expS_1_1_SP14R08_a.res in P2(1)
REM Old TITL SP14R08 in P2(1)/n
REM SHELXT solution in P2(1): R1 0.240, Rweak 0.135, Alpha 0.194
REM <I/s>   1.823 for    6 systematic absences,  Orientation as input
REM Formula found by SHELXT:  C13 N3 O6

CELL  0.71073   7.0200   9.2700  11.5600   90.000   97.670   90.000
ZERR   16.000   0.0014   0.0019   0.0023    0.000    0.030    0.000
LATT -1
SYMM -X, 1/2+Y, -Z
SFAC C H N O
UNIT 16 16 16 16
L.S. 10
BOND
LIST 6
FMAP 2
PLAN 20
O001  4  0.53610  0.48907  0.86504 11.00000  0.04361   8.63
O002  4  0.79902  0.69551  0.08755 11.00000  0.02326   8.47
O003  4  0.41097  0.66353  0.97808 11.00000  0.00565   7.98
O004  4  0.60747  0.24747  0.55893 11.00000  0.01824   7.92
O005  4  0.84648  0.85069 -0.06796 11.00000  0.02746   7.82
C006  1  0.38845  0.58620  0.87888 11.00000  0.02311   7.53
N007  3  0.43336  0.23009  0.52648 11.00000  0.02178   7.26
N008  3  0.72253  0.41348  0.30545 11.00000  0.01770   6.98
N009  3  0.34092  0.38661  0.68934 11.00000  0.01440   6.82
C00A  1  0.51236  0.39691  0.76555 11.00000  0.00989   6.40
C00B  1  0.69131  0.50882  0.20338 11.00000  0.00951   6.20
O00C  4  1.09499  0.76186  0.05842 11.00000  0.02874   5.67
C00D  1  0.83033  0.59900  0.18684 11.00000  0.02253   5.64
C00E  1  1.00383  0.61236  0.26448 11.00000  0.01754   5.61
C00F  1  0.92013  0.30382  0.45992 11.00000  0.02195   5.44
C00G  1  0.18838  0.47938  0.71859 11.00000  0.02162   5.37
C00H  1  0.92712  0.75803  0.03180 11.00000  0.01446   5.27
C00I  1  0.30686  0.29436  0.59367 11.00000  0.01636   4.98
C00J  1  0.19038  0.56796  0.80369 11.00000  0.02257   4.60
C00K  1  1.02815  0.51584  0.35934 11.00000  0.01157   4.12
C00L  1  0.33541  0.14931  0.42233 11.00000  0.02084   4.05
C00M  1  0.87763  0.42567  0.38005 11.00000  0.00671   4.05
HKLF 4
END
