TITL SP14R08_expF_0_6_expS_1_3_SP14R08_b.res in Pn
REM Old TITL SP14R08 in P2(1)/n
REM SHELXT solution in Pn: R1 0.228, Rweak 0.118, Alpha 0.088
REM <I/s>   1.158 for  101 systematic absences,  Orientation as input
REM Formula found by SHELXT:  C13 N5 O3

CELL  0.71073   7.0200   9.2700  11.5600   90.000   97.670   90.000
ZERR   16.000   0.0014   0.0019   0.0023    0.000    0.030    0.000
LATT -1
SYMM 1/2+X, -Y, 1/2+Z
SFAC C H N O
UNIT 16 16 16 16
L.S. 10
BOND
LIST 6
FMAP 2
PLAN 20
O001  4  0.03880  0.79285  0.38588 11.00000  0.02222   8.65
O002  4  0.08847  0.65007  0.22532 11.00000  0.00250   8.00
N003  3  0.08019  0.88806  0.48321 11.00000  0.02042   7.17
N004  3  0.87508  0.41297  0.42163 11.00000  0.03268   6.99
N005  3 -0.04936  1.07517  0.60830 11.00000  0.03438   6.96
N006  3  0.82038  0.76586  0.76775 11.00000  0.01916   6.93
N007  3  0.83129  0.31861  0.32874 11.00000  0.01619   6.90
C008  1  0.26076  0.89057  0.56887 11.00000  0.00487   6.47
O009  4  0.34335  0.74567  0.35675 11.00000  0.02901   6.24
C00A  1  0.27913  0.98491  0.65466 11.00000  0.03476   5.55
C00B  1  0.71848  0.51377  0.43583 11.00000  0.01060   5.44
C00C  1  0.63929  0.75933  0.73948 11.00000  0.01143   5.34
C00D  1  1.05962  0.51221  0.59127 11.00000  0.02102   5.24
C00E  1 -0.05962  0.98396  0.51049 11.00000  0.01891   5.15
C00F  1  0.18101  0.74171  0.32736 11.00000  0.02472   4.81
C00G  1  0.16090  1.16692  0.77468 11.00000  0.01849   4.42
C00H  1  0.90347  0.59663  0.60667 11.00000  0.02848   4.22
C00I  1  1.02845  0.41746  0.49752 11.00000  0.02106   3.96
C00J  1  0.93085  0.69230  0.70658 11.00000  0.02257   3.87
C00K  1  0.13489  1.07525  0.67990 11.00000  0.01413   3.76
C00L  1  0.74467  0.60532  0.54067 11.00000  0.03651   3.58
HKLF 4
END
