TITL SP14R08_expF_0_8_expS_1_3_SP14R08_b.res in Pn
REM Old TITL SP14R08 in P2(1)/n
REM SHELXT solution in Pn: R1 0.237, Rweak 0.041, Alpha 0.038
REM <I/s>   1.387 for  101 systematic absences,  Orientation as input
REM Formula found by SHELXT:  C13 N4 O4

CELL  0.71073   7.0200   9.2700  11.5600   90.000   97.670   90.000
ZERR   16.000   0.0014   0.0019   0.0023    0.000    0.030    0.000
LATT -1
SYMM 1/2+X, -Y, 1/2+Z
SFAC C H N O
UNIT 16 16 16 16
L.S. 10
BOND
LIST 6
FMAP 2
PLAN 20
O001  4  0.23961  0.39364  0.48697 11.00000  0.01721   8.53
O002  4  0.85044  0.25889  0.30861 11.00000  0.03418   8.14
O003  4  0.45574  0.30756  0.66491 11.00000  0.04110   7.87
C004  1  0.35806  0.58020  0.37023 11.00000  0.01964   7.32
N005  3  0.59270  0.10829  0.44203 11.00000  0.03718   7.02
N006  3  0.55413  0.49228  0.54347 11.00000  0.03398   6.59
N007  3  0.21531  0.49275  0.39089 11.00000  0.04270   6.56
N008  3  0.34349  0.67806  0.28119 11.00000  0.02861   6.50
C009  1  0.46273 -0.07748  0.55649 11.00000  0.03106   6.48
C00A  1  0.32039  0.23759  0.72510 11.00000  0.03223   6.09
C00B  1  0.39867  0.15115  0.82267 11.00000  0.02966   6.04
C00C  1  0.67935  0.26011  0.28492 11.00000  0.02210   5.73
C00D  1  0.66722 -0.17101  0.72461 11.00000  0.02068   5.73
C00E  1  0.77991  0.01758  0.60990 11.00000  0.02553   5.19
C00F  1  0.56036  0.20360  0.34476 11.00000  0.02007   4.95
C00G  1  0.58627  0.35312  0.17733 11.00000  0.03436   4.90
C00H  1  0.54130  0.58149  0.44482 11.00000  0.03561   4.70
C00I  1  0.41473  0.39399  0.56452 11.00000  0.02382   4.46
C00J  1  0.43459  0.02240  0.46333 11.00000  0.03141   4.35
C00K  1  0.61750 -0.07993  0.63072 11.00000  0.03754   4.03
O00L  4  0.14956  0.24725  0.69101 11.00000  0.04577   3.92
HKLF 4
END
