TITL SP14R08_expF_1_2_expS_0_5_SP14R08_a.res in Pn
REM Old TITL SP14R08 in P2(1)/n
REM SHELXT solution in Pn: R1 0.260, Rweak 0.274, Alpha 0.100
REM <I/s>   1.041 for  101 systematic absences,  Orientation as input
REM Formula found by SHELXT:  C12 N2 O6

CELL  0.71073   7.0200   9.2700  11.5600   90.000   97.670   90.000
ZERR   16.000   0.0014   0.0019   0.0023    0.000    0.030    0.000
LATT -1
SYMM 1/2+X, -Y, 1/2+Z
SFAC C H N O
UNIT 16 16 16 16
L.S. 10
BOND
LIST 6
FMAP 2
PLAN 20
N001  3  0.91347  0.39206  0.56536 11.00000  0.00010  10.82
O002  4  0.83266  0.67673  0.28193 11.00000  0.00010   9.78
O003  4  0.72764  0.48407  0.40169 11.00000  0.00666   9.15
O004  4  0.94267  0.29261  0.65857 11.00000  0.03047   9.08
O005  4  0.13857 -0.08012  0.63745 11.00000  0.02191   8.91
O006  4  0.34901  0.25812  0.31046 11.00000  0.01389   8.90
N007  3  0.80967  0.24717  0.73374 11.00000  0.01515   8.08
C008  1  0.09630  0.35490  0.17884 11.00000  0.00115   6.25
C009  1 -0.06136  0.01861  0.45944 11.00000  0.01051   5.88
C00A  1  0.91076  0.15415  0.82116 11.00000  0.01620   5.86
C00B  1  0.74019  0.38313  0.49051 11.00000  0.01552   5.74
C00C  1 -0.02603 -0.08741  0.56282 11.00000  0.01251   5.69
C00D  1  0.17616  0.27140  0.28942 11.00000  0.00010   5.36
C00E  1  1.06136  0.49078  0.54205 11.00000  0.02114   5.31
C00F  1  0.25790  0.09500  0.52091 11.00000  0.00550   5.15
O00G  4  0.64259  0.24680  0.69121 11.00000  0.03797   4.88
C00H  1  1.06001  0.57036  0.45495 11.00000  0.01618   4.61
C00I  1  0.29854  0.01029  0.63183 11.00000  0.02450   3.71
C00J  1  0.87258  0.57931  0.37741 11.00000  0.03727   3.57
C00K  1  0.04674  0.19312  0.33909 11.00000  0.00578   3.48
HKLF 4
END
