TITL SP14R08_expF_0_8_expS_0_8_SP14R08_a.res in Pn
REM Old TITL SP14R08 in P2(1)/n
REM SHELXT solution in Pn: R1 0.253, Rweak 0.215, Alpha 0.133
REM <I/s>   1.061 for  101 systematic absences,  Orientation as input
REM Formula found by SHELXT:  C12 N3 O5

CELL  0.71073   7.0200   9.2700  11.5600   90.000   97.670   90.000
ZERR   16.000   0.0014   0.0019   0.0023    0.000    0.030    0.000
LATT -1
SYMM 1/2+X, -Y, 1/2+Z
SFAC C H N O
UNIT 16 16 16 16
L.S. 10
BOND
LIST 6
FMAP 2
PLAN 20
O001  4  0.75019  0.38977  0.48440 11.00000  0.00010   9.53
N002  3  0.87551  0.57794  0.37271 11.00000  0.00010   9.28
O003  4  0.35734  0.25491  0.31404 11.00000  0.02389   8.77
O004  4  0.17642 -0.16467  0.72735 11.00000  0.02430   8.06
O005  4  0.73296  0.48442  0.38278 11.00000  0.03445   7.69
N006  3  0.97486  0.29452  0.66663 11.00000  0.01465   7.30
N007  3  0.18968  0.27071  0.28169 11.00000  0.02416   6.92
C008  1  0.09608  0.08563  0.43879 11.00000  0.03098   6.29
C009  1  1.05901  0.47903  0.53808 11.00000  0.00010   5.96
C00A  1  0.08712  0.34322  0.17755 11.00000  0.01944   5.87
C00B  1 -0.02595 -0.08485  0.55576 11.00000  0.00975   5.79
C00C  1  0.07498  0.19481  0.34291 11.00000  0.00283   5.45
C00D  1  0.90426  0.14629  0.82245 11.00000  0.00748   5.42
C00E  1  0.82533  0.23955  0.72205 11.00000  0.00840   5.36
C00F  1 -0.06485  0.00289  0.45504 11.00000  0.03225   4.58
C00G  1  0.91999  0.38598  0.56407 11.00000  0.00372   4.50
O00H  4  0.65265  0.23861  0.69358 11.00000  0.01641   4.37
C00I  1  1.06485  0.56101  0.44418 11.00000  0.03839   3.61
C00J  1  0.29935  0.01027  0.60984 11.00000  0.00847   3.31
C00K  1  0.84706  0.68622  0.28201 11.00000  0.00679   3.13
HKLF 4
END
