TITL SP14R08_expF_1_1_expS_0_9_SP14R08_b.res in Pn
REM Old TITL SP14R08 in P2(1)/n
REM SHELXT solution in Pn: R1 0.231, Rweak 0.053, Alpha 0.041
REM <I/s>   1.334 for  101 systematic absences,  Orientation as input
REM Formula found by SHELXT:  C12 N5 O5

CELL  0.71073   7.0200   9.2700  11.5600   90.000   97.670   90.000
ZERR   16.000   0.0014   0.0019   0.0023    0.000    0.030    0.000
LATT -1
SYMM 1/2+X, -Y, 1/2+Z
SFAC C H N O
UNIT 16 16 16 16
L.S. 10
BOND
LIST 6
FMAP 2
PLAN 20
O001  4  0.05021  0.30289  0.34190 11.00000  0.03810   9.03
O002  4  0.65009  0.25777  0.69270 11.00000  0.01675   8.75
O003  4  0.27461  0.39238  0.52101 11.00000  0.03188   8.28
O004  4  0.28134  0.48892  0.61157 11.00000  0.04600   8.11
C005  1  0.83087  0.27103  0.72103 11.00000  0.01705   8.00
N006  3  0.91619  0.10110  0.56176 11.00000  0.03211   7.77
N007  3  0.13832  0.58377  0.63022 11.00000  0.03519   7.55
N008  3  1.04688 -0.07893  0.43845 11.00000  0.04087   6.88
N009  3  0.16850  0.67535  0.72497 11.00000  0.02549   6.81
N00A  3  0.10020  0.15395  0.17730 11.00000  0.02790   6.51
C00B  1 -0.05913  0.48639  0.46035 11.00000  0.02354   6.27
C00C  1  0.83931 -0.17167  0.28041 11.00000  0.02024   6.08
C00D  1 -0.02863  0.58071  0.55114 11.00000  0.02334   5.44
C00E  1  1.05913  0.01420  0.54209 11.00000  0.03124   5.32
C00F  1  0.91911  0.35652  0.82270 11.00000  0.03797   5.07
C00G  1  0.09135  0.38780  0.43814 11.00000  0.02717   4.62
C00H  1  0.18575  0.24601  0.27965 11.00000  0.02729   4.51
C00I  1  0.87175 -0.07634  0.36832 11.00000  0.02645   4.46
C00J  1  0.71613  0.01610  0.39129 11.00000  0.02646   4.44
O00K  4  0.34727  0.24834  0.31089 11.00000  0.07902   4.24
C00L  1  0.94715  0.20243  0.66182 11.00000  0.02135   4.04
C00M  1  0.76214  0.10342  0.49437 11.00000  0.03030   3.58
HKLF 4
END
