TITL SP14R08_expF_1_1_expS_1_5_SP14R08_a.res in P2(1)/n
REM Old TITL SP14R08 in P2(1)/n
REM SHELXT solution in P2(1)/n: R1 0.400, Rweak 0.015, Alpha 0.024
REM <I/s>   1.952 for  107 systematic absences,  Orientation as input
REM Formula found by SHELXT:  C9 N O

CELL  0.71073   7.0200   9.2700  11.5600   90.000   97.670   90.000
ZERR   16.000   0.0014   0.0019   0.0023    0.000    0.030    0.000
LATT  1
SYMM 1/2-X, 1/2+Y, 1/2-Z
SFAC C H N O
UNIT 16 16 16 16
L.S. 10
BOND
LIST 6
FMAP 2
PLAN 20
N001  3  0.66195  0.07577  0.72248 11.00000  0.05617   6.63
C002  1  0.55388  0.45084  0.33972 11.00000  0.04894   6.35
C003  1  0.78448  0.26373  0.60984 11.00000  0.06147   6.23
C004  1  0.45708  0.17425  0.55578 11.00000  0.06571   6.14
C005  1  0.58556  0.35834  0.43576 11.00000  0.05443   6.10
C006  1  0.67308  0.51201  0.27996 11.00000  0.05691   5.85
O007  4  0.85379  0.50497  0.30885 11.00000  0.07350   5.84
C008  1  0.76475  0.35843  0.51796 11.00000  0.05639   5.80
C009  1  0.44061  0.27170  0.46032 11.00000  0.05894   5.77
C00A  1  0.63554  0.17212  0.63002 11.00000  0.05893   5.76
C00B  1  0.58586  0.59668  0.17646 11.00000  0.06819   5.27
HKLF 4
END
