TITL SP14R08_expF_0_6_expS_1_4_SP14R08_a.res in P2(1)/n
REM Old TITL SP14R08 in P2(1)/n
REM SHELXT solution in P2(1)/n: R1 0.282, Rweak 0.113, Alpha 0.173
REM <I/s>   1.242 for  107 systematic absences,  Orientation as input
REM Formula found by SHELXT:  C9 N O

CELL  0.71073   7.0200   9.2700  11.5600   90.000   97.670   90.000
ZERR   16.000   0.0014   0.0019   0.0023    0.000    0.030    0.000
LATT  1
SYMM 1/2-X, 1/2+Y, 1/2-Z
SFAC C H N O
UNIT 16 16 16 16
L.S. 10
BOND
LIST 6
FMAP 2
PLAN 20
N001  3  0.55131  0.44966  0.33876 11.00000  0.02214   6.52
C002  1  0.67946  0.51228  0.27909 11.00000  0.01654   6.36
O003  4  0.85054  0.50654  0.30885 11.00000  0.02955   6.33
C004  1  0.66549  0.07385  0.72167 11.00000  0.01356   6.10
C005  1  0.78180  0.26419  0.61059 11.00000  0.01839   5.93
C006  1  0.58832  0.35727  0.43826 11.00000  0.01923   5.89
C007  1  0.63253  0.17119  0.62987 11.00000  0.01967   5.85
C008  1  0.75892  0.35744  0.51499 11.00000  0.01863   5.77
C009  1  0.43855  0.26439  0.45920 11.00000  0.02097   5.67
C00A  1  0.46004  0.17122  0.55506 11.00000  0.02305   5.53
C00B  1  0.59221  0.60074  0.17690 11.00000  0.01861   5.49
HKLF 4
END
