TITL SP14R08_expF_0_8_expS_1_1_SP14R08_b.res in Pn
REM Old TITL SP14R08 in P2(1)/n
REM SHELXT solution in Pn: R1 0.236, Rweak 0.082, Alpha 0.054
REM <I/s>   1.234 for  101 systematic absences,  Orientation as input
REM Formula found by SHELXT:  C11 N4 O6

CELL  0.71073   7.0200   9.2700  11.5600   90.000   97.670   90.000
ZERR   16.000   0.0014   0.0019   0.0023    0.000    0.030    0.000
LATT -1
SYMM 1/2+X, -Y, 1/2+Z
SFAC C H N O
UNIT 16 16 16 16
L.S. 10
BOND
LIST 6
FMAP 2
PLAN 20
N001  3  0.86774  0.58580  0.36544 11.00000  0.01936  10.30
N002  3  0.09812  0.10619  0.43405 11.00000  0.00010   9.63
O003  4  0.36220  0.25445  0.30162 11.00000  0.02543   9.36
O004  4  0.96622  0.30817  0.65782 11.00000  0.03116   9.08
O005  4  0.84406  0.67950  0.27135 11.00000  0.03414   8.99
O006  4  0.75404  0.38872  0.47826 11.00000  0.03183   7.77
O007  4  1.06078  0.48489  0.53798 11.00000  0.02871   7.53
C008  1  0.19383  0.26759  0.28096 11.00000  0.01601   7.48
N009  3  0.71741  0.49179  0.38217 11.00000  0.02245   7.34
N00A  3  0.10407  0.34760  0.17621 11.00000  0.02814   6.68
C00B  1 -0.02834 -0.07553  0.54927 11.00000  0.01445   6.26
C00C  1  0.83599  0.24025  0.71946 11.00000  0.01786   6.07
C00D  1  1.05608  0.58302  0.43953 11.00000  0.03198   6.06
C00E  1  0.91958  0.14714  0.82379 11.00000  0.02142   5.66
C00F  1  0.28280  0.01927  0.60071 11.00000  0.01743   5.54
C00G  1  0.06880  0.20592  0.33722 11.00000  0.01442   5.30
C00H  1 -0.06078  0.00984  0.45519 11.00000  0.03914   4.90
C00I  1  0.17397 -0.17248  0.71582 11.00000  0.01367   4.45
C00J  1  0.27280  0.09964  0.50644 11.00000  0.02698   4.35
O00K  4  0.65728  0.24212  0.68073 11.00000  0.03273   4.29
C00L  1  0.12888 -0.07566  0.62729 11.00000  0.02713   3.16
HKLF 4
END
