TITL SP14R08_expF_0_8_expS_1_2_SP14R08_b.res in Pn
REM Old TITL SP14R08 in P2(1)/n
REM SHELXT solution in Pn: R1 0.233, Rweak 0.055, Alpha 0.052
REM <I/s>   1.301 for  101 systematic absences,  Orientation as input
REM Formula found by SHELXT:  C16 N2 O3

CELL  0.71073   7.0200   9.2700  11.5600   90.000   97.670   90.000
ZERR   16.000   0.0014   0.0019   0.0023    0.000    0.030    0.000
LATT -1
SYMM 1/2+X, -Y, 1/2+Z
SFAC C H N O
UNIT 16 16 16 16
L.S. 10
BOND
LIST 6
FMAP 2
PLAN 20
O001  4  0.76029  0.60618  0.51172 11.00000  0.01516   8.79
C002  1  0.67984  0.76831  0.27443 11.00000  0.03329   7.41
N003  3  0.54441  0.69171  0.33342 11.00000  0.02772   7.05
N004  3  0.53923  1.07321  0.44213 11.00000  0.03853   6.89
C005  1  0.64199  0.41789  0.62841 11.00000  0.02145   6.47
C006  1  0.78507  0.50475  0.60788 11.00000  0.03325   6.39
C007  1  0.56495  0.97686  0.53588 11.00000  0.02923   6.31
O008  4  0.14865  0.74182  0.69024 11.00000  0.03268   6.30
C009  1  0.58402  0.60331  0.43364 11.00000  0.02320   6.27
C00A  1  0.32977  1.17150  0.27441 11.00000  0.02028   6.10
O00B  4  0.85135  0.75479  0.30859 11.00000  0.04693   6.10
C00C  1  0.60043  0.84722  0.17720 11.00000  0.02485   5.99
C00D  1  0.65466  0.32231  0.71840 11.00000  0.01913   5.78
C00E  1  0.21954  0.98122  0.38838 11.00000  0.02365   5.48
C00F  1  0.43922  0.79408  0.65371 11.00000  0.01949   5.45
C00G  1  0.40537  0.88844  0.55599 11.00000  0.02819   5.03
C00H  1  0.38261  1.07681  0.36807 11.00000  0.03328   4.55
C00I  1  0.44677  0.50568  0.45559 11.00000  0.02622   4.52
C00J  1  0.41422  0.64726  0.82280 11.00000  0.03588   4.28
C00K  1  0.45955  0.41479  0.55312 11.00000  0.03714   4.19
C00L  1  0.32091  0.74239  0.71567 11.00000  0.01864   4.15
HKLF 4
END
