TITL SP14R08_expF_1_5_expS_0_9_SP14R08_a.res in P2(1)/n
REM Old TITL SP14R08 in P2(1)/n
REM SHELXT solution in P2(1)/n: R1 0.315, Rweak 0.021, Alpha 0.042
REM <I/s>   1.760 for  107 systematic absences,  Orientation as input
REM Formula found by SHELXT:  C10 O

CELL  0.71073   7.0200   9.2700  11.5600   90.000   97.670   90.000
ZERR   16.000   0.0014   0.0019   0.0023    0.000    0.030    0.000
LATT  1
SYMM 1/2-X, 1/2+Y, 1/2-Z
SFAC C H N O
UNIT 16 16 16 16
L.S. 10
BOND
LIST 6
FMAP 2
PLAN 20
C001  1  0.66171  0.07555  0.72258 11.00000  0.03153   6.37
C002  1  0.55232  0.44865  0.33970 11.00000  0.03610   6.33
C003  1  0.78340  0.26225  0.60872 11.00000  0.04080   6.24
C004  1  0.58831  0.35526  0.43813 11.00000  0.03834   6.07
O005  4  0.85151  0.50585  0.30870 11.00000  0.05864   6.05
C006  1  0.46381  0.16921  0.55631 11.00000  0.04538   6.03
C007  1  0.67879  0.51281  0.27897 11.00000  0.04054   5.87
C008  1  0.44010  0.26577  0.46082 11.00000  0.04468   5.77
C009  1  0.63202  0.17026  0.63015 11.00000  0.04138   5.69
C00A  1  0.76051  0.35690  0.51460 11.00000  0.04140   5.68
C00B  1  0.59017  0.59969  0.17695 11.00000  0.04842   5.40
HKLF 4
END
