TITL SP14R08_expF_0_8_expS_0_5_SP14R08_a.res in Pn
REM Old TITL SP14R08 in P2(1)/n
REM SHELXT solution in Pn: R1 0.293, Rweak 0.507, Alpha 0.293
REM <I/s>   0.979 for   97 systematic absences,  Orientation as input
REM Formula found by SHELXT:  C16 O8

CELL  0.71073   7.0200   9.2700  11.5600   90.000   97.670   90.000
ZERR   16.000   0.0014   0.0019   0.0023    0.000    0.030    0.000
LATT -1
SYMM 1/2+X, -Y, 1/2+Z
SFAC C H N O
UNIT 16 16 16 16
L.S. 10
BOND
LIST 6
FMAP 2
PLAN 20
O001  4  0.67962  1.17183  0.72641 11.00000  0.00010  10.88
O002  4  0.78434  0.98137  0.62073 11.00000  0.00010   9.66
O003  4  0.24084  0.60866  0.49346 11.00000  0.00010   9.15
C004  1  0.46339  1.07112  0.56516 11.00000  0.00010   8.69
O005  4  0.67466  0.73429  0.28791 11.00000  0.00010   8.63
O006  4  0.14956  0.75540  0.69722 11.00000  0.00538   8.34
O007  4  0.58638  0.88299  0.44108 11.00000  0.00010   7.99
O008  4  0.56772  0.79744  0.33517 11.00000  0.00010   7.82
C009  1  0.61850  1.07579  0.63401 11.00000  0.00010   7.61
C00A  1  0.41845  0.85228  0.82837 11.00000  0.00010   5.73
C00B  1  0.52093  0.52967  0.52699 11.00000  0.03450   5.63
C00C  1  0.32010  0.76840  0.73584 11.00000  0.04386   5.49
C00D  1  0.43457  0.98555  0.46525 11.00000  0.00010   5.30
C00E  1  0.85044  0.73511  0.31676 11.00000  0.00010   4.67
C00F  1  0.55291  0.41530  0.45773 11.00000  0.00010   4.55
C00G  1  0.39090  0.76029  0.51727 11.00000  0.04910   4.09
C00H  1  0.39573  0.30129  0.28499 11.00000  0.05531   3.73
C00I  1  0.41139  0.59118  0.58160 11.00000  0.03398   3.72
C00J  1  0.45602  0.68221  0.65649 11.00000  0.00010   3.71
O00K  4  0.37579  1.01896  0.78674 11.00000  0.21239   3.69
C00L  1  0.21565  0.87476  0.86311 11.00000  0.06175   3.56
C00M  1  0.32405  0.45896  0.38285 11.00000  0.08830   3.51
C00N  1  0.33957  0.42659  0.13689 11.00000  0.06612   3.33
C00O  1  0.59436  0.92620  0.22157 11.00000  0.10547   3.06
HKLF 4
END
