TITL SP14R08_expF_0_7_expS_0_9_SP14R08_a.res in Pn
REM Old TITL SP14R08 in P2(1)/n
REM SHELXT solution in Pn: R1 0.249, Rweak 0.233, Alpha 0.113
REM <I/s>   1.057 for  101 systematic absences,  Orientation as input
REM Formula found by SHELXT:  C11 N4 O4

CELL  0.71073   7.0200   9.2700  11.5600   90.000   97.670   90.000
ZERR   16.000   0.0014   0.0019   0.0023    0.000    0.030    0.000
LATT -1
SYMM 1/2+X, -Y, 1/2+Z
SFAC C H N O
UNIT 16 16 16 16
L.S. 10
BOND
LIST 6
FMAP 2
PLAN 20
O001  4  0.36705  1.08268  0.36924 11.00000  0.00324  11.46
N002  3  0.57665  0.60500  0.43788 11.00000  0.00928   9.26
C003  1  0.67971  0.75376  0.27078 11.00000  0.01194   9.13
O004  4  0.77580  0.51289  0.60884 11.00000  0.00010   7.62
O005  4  0.14790  0.74239  0.69329 11.00000  0.01645   7.53
N006  3  0.66378  0.32471  0.72297 11.00000  0.00010   7.17
N007  3  0.55107  0.97899  0.54114 11.00000  0.01584   7.08
N008  3  0.55312  0.70327  0.34172 11.00000  0.01576   6.61
C009  1  0.45138  0.80279  0.66275 11.00000  0.01152   6.28
C00A  1  0.40367  0.64676  0.82119 11.00000  0.00881   6.03
C00B  1  0.58934  0.85294  0.17881 11.00000  0.01396   6.01
O00C  4  0.85210  0.75473  0.30954 11.00000  0.03235   5.41
C00D  1  0.75229  0.61126  0.51520 11.00000  0.00380   5.35
C00E  1  0.53645  1.06918  0.43987 11.00000  0.02998   5.15
C00F  1  0.22940  0.90049  0.48706 11.00000  0.03618   4.54
C00G  1  0.45187  0.40834  0.54628 11.00000  0.01323   4.33
C00H  1  0.43310  0.50908  0.46379 11.00000  0.02568   3.93
C00I  1  0.32210  0.72917  0.71461 11.00000  0.00045   3.43
C00J  1  0.39970  0.89143  0.56314 11.00000  0.02329   3.04
HKLF 4
END
