TITL SP14R08_expF_1_1_expS_1_3_SP14R08_b.res in Pn
REM Old TITL SP14R08 in P2(1)/n
REM SHELXT solution in Pn: R1 0.303, Rweak 0.018, Alpha 0.005
REM <I/s>   1.691 for  101 systematic absences,  Orientation as input
REM Formula found by SHELXT:  C11 N6 O5

CELL  0.71073   7.0200   9.2700  11.5600   90.000   97.670   90.000
ZERR   16.000   0.0014   0.0019   0.0023    0.000    0.030    0.000
LATT -1
SYMM 1/2+X, -Y, 1/2+Z
SFAC C H N O
UNIT 16 16 16 16
L.S. 10
BOND
LIST 6
FMAP 2
PLAN 20
O001  4  1.03717 -0.07979  0.44779 11.00000  0.06638   8.61
N002  3  0.90938  0.10765  0.56234 11.00000  0.04063   8.49
O003  4  0.83000 -0.16883  0.27996 11.00000  0.04207   8.11
O004  4  0.71870  0.01071  0.39701 11.00000  0.05555   7.87
C005  1  0.81868  0.25738  0.72143 11.00000  0.03921   7.82
N006  3  0.12904  0.58554  0.63446 11.00000  0.04543   7.12
N007  3 -0.05757  0.48673  0.46098 11.00000  0.04925   7.09
O008  4  0.34935  0.23883  0.31276 11.00000  0.05770   7.06
N009  3  0.04959  0.30161  0.33939 11.00000  0.04136   6.87
N00A  3  0.94382  0.19692  0.66083 11.00000  0.05223   6.65
N00B  3  0.25840  0.39482  0.51853 11.00000  0.04258   6.59
C00C  1  0.15207  0.67965  0.72393 11.00000  0.04044   6.27
C00D  1  0.28655  0.48588  0.61432 11.00000  0.04793   6.07
C00E  1  0.08938  0.15008  0.17657 11.00000  0.04812   6.00
O00F  4  0.64342  0.25467  0.69624 11.00000  0.05125   5.76
C00G  1  0.73877  0.10826  0.48860 11.00000  0.04632   5.67
C00H  1  0.90714  0.34927  0.82343 11.00000  0.04806   5.57
C00I  1  1.05757  0.01793  0.54219 11.00000  0.04710   5.40
C00J  1  0.86433 -0.07772  0.37340 11.00000  0.04565   5.20
C00K  1 -0.03390  0.57798  0.55874 11.00000  0.04768   5.09
C00L  1  0.17733  0.23260  0.28267 11.00000  0.04698   5.07
C00M  1  0.08588  0.39591  0.43656 11.00000  0.04473   4.99
HKLF 4
END
