TITL SP14R08_expF_1_2_expS_1_1_SP14R08_b.res in Pn
REM Old TITL SP14R08 in P2(1)/n
REM SHELXT solution in Pn: R1 0.284, Rweak 0.022, Alpha 0.011
REM <I/s>   1.757 for  101 systematic absences,  Orientation as input
REM Formula found by SHELXT:  C14 N4 O4

CELL  0.71073   7.0200   9.2700  11.5600   90.000   97.670   90.000
ZERR   16.000   0.0014   0.0019   0.0023    0.000    0.030    0.000
LATT -1
SYMM 1/2+X, -Y, 1/2+Z
SFAC C H N O
UNIT 16 16 16 16
L.S. 10
BOND
LIST 6
FMAP 2
PLAN 20
O001  4  0.53662  1.08116  0.44931 11.00000  0.06293   7.77
O002  4  0.76179  0.60669  0.51338 11.00000  0.05114   7.53
N003  3  0.41113  0.89638  0.56188 11.00000  0.04341   7.19
N004  3  0.63747  0.41618  0.63339 11.00000  0.04273   7.04
N005  3  0.54071  0.69803  0.33796 11.00000  0.04515   6.79
C006  1  0.67759  0.76747  0.28071 11.00000  0.04628   6.71
N007  3  0.22094  0.98502  0.39061 11.00000  0.04807   6.64
C008  1  0.33179  1.16808  0.27662 11.00000  0.02840   6.50
C009  1  0.65607  0.32334  0.72188 11.00000  0.03392   6.43
O00A  4  0.85190  0.75930  0.31415 11.00000  0.06120   6.25
C00B  1  0.55790  0.97839  0.54033 11.00000  0.04019   6.19
C00C  1  0.43620  0.80089  0.65902 11.00000  0.03237   6.04
O00D  4  0.14810  0.74451  0.69609 11.00000  0.04644   5.82
C00E  1  0.58792  0.85381  0.17710 11.00000  0.04853   5.82
C00F  1  0.78484  0.50994  0.61058 11.00000  0.04294   5.62
C00G  1  0.44149  0.50865  0.45969 11.00000  0.04361   5.41
C00H  1  0.40743  0.65453  0.82290 11.00000  0.04746   4.98
C00I  1  0.31944  0.74074  0.72078 11.00000  0.03588   4.95
C00J  1  0.58695  0.60760  0.43865 11.00000  0.04031   4.85
C00K  1  0.37521  1.07921  0.37171 11.00000  0.04699   4.45
C00L  1  0.46256  0.42263  0.56397 11.00000  0.04945   4.26
C00M  1  0.24518  0.89357  0.48344 11.00000  0.05131   3.98
HKLF 4
END
