TITL SP14R08_expF_0_5_expS_1_1_SP14R08_a.res in Pn
REM Old TITL SP14R08 in P2(1)/n
REM SHELXT solution in Pn: R1 0.264, Rweak 0.305, Alpha 0.148
REM <I/s>   1.050 for   97 systematic absences,  Orientation as input
REM Formula found by SHELXT:  C4 N2 O3

CELL  0.71073   7.0200   9.2700  11.5600   90.000   97.670   90.000
ZERR   16.000   0.0014   0.0019   0.0023    0.000    0.030    0.000
LATT -1
SYMM 1/2+X, -Y, 1/2+Z
SFAC C H N O
UNIT 16 16 16 16
L.S. 10
BOND
LIST 6
FMAP 2
PLAN 20
N001  3  0.60896 -0.08110  0.61977 11.00000  0.00010  12.07
O002  4  0.33525  0.60962  0.19502 11.00000  0.00010  10.42
O003  4  0.40024  0.24978  0.94776 11.00000  0.01260   8.65
N004  3  0.43013  0.75695  0.02775 11.00000  0.00913   8.62
O005  4  0.81060  0.01549  0.79262 11.00000  0.00010   8.52
O006  4  0.71054  0.19849  0.91604 11.00000  0.02538   7.46
O007  4  0.59198 -0.17814  0.53734 11.00000  0.00010   6.99
N008  3  0.64689  0.34915  1.07449 11.00000  0.00010   6.91
N009  3  0.49217  0.10339  0.73724 11.00000  0.00093   6.62
C00A  1  0.46428  0.01867  0.63694 11.00000  0.01994   5.76
C00B  1  0.30857  0.69935  0.08842 11.00000  0.00154   5.53
C00C  1  0.32119  0.85243 -0.07449 11.00000  0.01528   5.10
C00D  1  0.78045 -0.09951  0.69967 11.00000  0.01515   4.81
C00E  1  0.42573  0.32271  0.49269 11.00000  0.02813   4.67
C00F  1  0.52958  0.51331  0.36347 11.00000  0.00768   4.66
O00G  4  0.59754  0.75988  0.06802 11.00000  0.01569   4.47
C00H  1  0.56977  0.27211  0.96757 11.00000  0.00100   3.86
C00I  1  0.18940  0.42968  0.30828 11.00000  0.00500   3.02
HKLF 4
END
