TITL SP14R08_expF_1_0_expS_1_2_SP14R08_b.res in Pn
REM Old TITL SP14R08 in P2(1)/n
REM SHELXT solution in Pn: R1 0.257, Rweak 0.028, Alpha 0.028
REM <I/s>   1.579 for  101 systematic absences,  Orientation as input
REM Formula found by SHELXT:  C13 N6 O3

CELL  0.71073   7.0200   9.2700  11.5600   90.000   97.670   90.000
ZERR   16.000   0.0014   0.0019   0.0023    0.000    0.030    0.000
LATT -1
SYMM 1/2+X, -Y, 1/2+Z
SFAC C H N O
UNIT 16 16 16 16
L.S. 10
BOND
LIST 6
FMAP 2
PLAN 20
O001  4  0.54151  1.07984  0.44618 11.00000  0.05350   8.04
N002  3  0.42341  0.89290  0.56173 11.00000  0.03871   7.53
N003  3  0.76685  0.60173  0.50977 11.00000  0.04048   7.31
N004  3  0.45316  0.80145  0.66196 11.00000  0.03748   7.10
N005  3  0.64670  0.41208  0.62830 11.00000  0.03795   7.05
N006  3  0.21975  0.98914  0.38830 11.00000  0.04139   6.89
O007  4  0.85129  0.75700  0.31017 11.00000  0.05311   6.77
N008  3  0.44189  0.51643  0.45665 11.00000  0.04760   6.61
C009  1  0.66640  0.31940  0.71816 11.00000  0.02903   6.44
C00A  1  0.33976  1.16752  0.27441 11.00000  0.02271   6.30
C00B  1  0.68588  0.76942  0.28683 11.00000  0.02866   6.22
C00C  1  0.32845  0.74516  0.72723 11.00000  0.03454   5.80
C00D  1  0.55674  0.69798  0.34241 11.00000  0.03344   5.55
C00E  1  0.60207  0.84666  0.17697 11.00000  0.03682   5.45
C00F  1  0.78478  0.51432  0.60693 11.00000  0.03822   5.34
C00G  1  0.41787  0.64618  0.82303 11.00000  0.04185   5.24
O00H  4  0.14871  0.74585  0.69268 11.00000  0.04917   5.09
C00I  1  0.55984  0.98729  0.53725 11.00000  0.03465   4.62
C00J  1  0.59843  0.60403  0.43954 11.00000  0.03715   4.45
C00K  1  0.38187  1.07242  0.36724 11.00000  0.03732   4.33
C00L  1  0.24937  0.89065  0.48143 11.00000  0.03442   4.06
C00M  1  0.46481  0.42354  0.56126 11.00000  0.05038   3.83
HKLF 4
END
