TITL SP14R08_expF_1_3_expS_1_2_SP14R08_a.res in P2(1)/n
REM Old TITL SP14R08 in P2(1)/n
REM SHELXT solution in P2(1)/n: R1 0.394, Rweak 0.015, Alpha 0.027
REM <I/s>   1.788 for  107 systematic absences,  Orientation as input
REM Formula found by SHELXT:  C9 N O

CELL  0.71073   7.0200   9.2700  11.5600   90.000   97.670   90.000
ZERR   16.000   0.0014   0.0019   0.0023    0.000    0.030    0.000
LATT  1
SYMM 1/2-X, 1/2+Y, 1/2-Z
SFAC C H N O
UNIT 16 16 16 16
L.S. 10
BOND
LIST 6
FMAP 2
PLAN 20
N001  3  0.33865  0.92603  0.27798 11.00000  0.04100   6.61
C002  1  0.44640  0.55219  0.65940 11.00000  0.03809   6.34
C003  1  0.21723  0.73601  0.39064 11.00000  0.04521   6.20
C004  1  0.53977  0.82977  0.44252 11.00000  0.04822   6.11
C005  1  0.40990  0.64219  0.56249 11.00000  0.04197   6.10
C006  1  0.32215  0.48650  0.72093 11.00000  0.04491   5.92
O007  4  0.14512  0.49397  0.69130 11.00000  0.05608   5.88
C008  1  0.36759  0.83077  0.37004 11.00000  0.04389   5.83
C009  1  0.23825  0.64188  0.48448 11.00000  0.04289   5.77
C00A  1  0.56032  0.73395  0.53868 11.00000  0.04595   5.72
C00B  1  0.41183  0.40003  0.82469 11.00000  0.05010   5.33
HKLF 4
END
