TITL SP14R08_expF_1_2_expS_0_8_SP14R08_a.res in P2(1)/n
REM Old TITL SP14R08 in P2(1)/n
REM SHELXT solution in P2(1)/n: R1 0.270, Rweak 0.072, Alpha 0.137
REM <I/s>   1.357 for  107 systematic absences,  Orientation as input
REM Formula found by SHELXT:  C9 N O

CELL  0.71073   7.0200   9.2700  11.5600   90.000   97.670   90.000
ZERR   16.000   0.0014   0.0019   0.0023    0.000    0.030    0.000
LATT  1
SYMM 1/2-X, 1/2+Y, 1/2-Z
SFAC C H N O
UNIT 16 16 16 16
L.S. 10
BOND
LIST 6
FMAP 2
PLAN 20
N001  3  0.55093  0.55059  0.33895 11.00000  0.02786   6.50
C002  1  0.67903  0.48809  0.27895 11.00000  0.02121   6.28
C003  1  0.66449  0.92566  0.72185 11.00000  0.01770   6.21
O004  4  0.85043  0.49357  0.30861 11.00000  0.03750   6.21
C005  1  0.58810  0.64313  0.43844 11.00000  0.02355   5.98
C006  1  0.78221  0.73609  0.60996 11.00000  0.02382   5.97
C007  1  0.63297  0.82892  0.63025 11.00000  0.02458   5.84
C008  1  0.75892  0.64310  0.51477 11.00000  0.02364   5.81
C009  1  0.46136  0.82895  0.55548 11.00000  0.02809   5.61
C00A  1  0.43891  0.73555  0.45920 11.00000  0.02618   5.46
C00B  1  0.59201  0.39907  0.17673 11.00000  0.02505   5.45
HKLF 4
END
