TITL SP14R08_expF_0_9_expS_1_2_SP14R08_b.res in Pn
REM Old TITL SP14R08 in P2(1)/n
REM SHELXT solution in Pn: R1 0.235, Rweak 0.040, Alpha 0.016
REM <I/s>   1.430 for  101 systematic absences,  Orientation as input
REM Formula found by SHELXT:  C12 N6 O5

CELL  0.71073   7.0200   9.2700  11.5600   90.000   97.670   90.000
ZERR   16.000   0.0014   0.0019   0.0023    0.000    0.030    0.000
LATT -1
SYMM 1/2+X, -Y, 1/2+Z
SFAC C H N O
UNIT 16 16 16 16
L.S. 10
BOND
LIST 6
FMAP 2
PLAN 20
O001  4  0.82804 -0.16679  0.28192 11.00000  0.02343   9.83
O002  4  0.71421  0.01748  0.39871 11.00000  0.03089   8.85
N003  3  0.90835  0.10824  0.56612 11.00000  0.03063   8.35
N004  3  0.81820  0.25881  0.72337 11.00000  0.02755   8.16
O005  4  0.34753  0.24627  0.31374 11.00000  0.05179   7.98
N006  3  0.74541  0.10535  0.49162 11.00000  0.03945   7.86
N007  3  0.12597  0.58625  0.63164 11.00000  0.03796   7.40
N008  3  0.03703  0.29977  0.34115 11.00000  0.03476   7.34
N009  3 -0.05865  0.49516  0.46279 11.00000  0.03896   6.84
C00A  1 -0.04304  0.58076  0.55621 11.00000  0.03264   6.48
C00B  1  0.93526  0.19895  0.66212 11.00000  0.01855   6.38
C00C  1  0.08598  0.15311  0.17592 11.00000  0.03206   6.33
C00D  1  1.03087 -0.07772  0.44609 11.00000  0.03078   6.28
C00E  1  1.05865  0.02183  0.54498 11.00000  0.02719   5.57
C00F  1  0.90433  0.35697  0.82408 11.00000  0.03036   5.54
O00G  4  0.64535  0.25615  0.69542 11.00000  0.03287   5.33
C00H  1  0.86208 -0.07648  0.37075 11.00000  0.02746   5.20
C00I  1  0.27969  0.49498  0.62151 11.00000  0.04578   4.93
C00J  1  0.08341  0.39517  0.44261 11.00000  0.03201   4.84
C00K  1  0.17750  0.23131  0.28355 11.00000  0.03646   4.61
C00L  1  0.26162  0.39315  0.52071 11.00000  0.02496   4.17
C00M  1  0.15252  0.68675  0.72636 11.00000  0.04048   3.99
O00N  4  0.59922  0.17322  0.50440 11.00000  0.23148   3.28
HKLF 4
END
