TITL SP14R08_expF_0_7_expS_1_3_SP14R08_b.res in P2(1)
REM Old TITL SP14R08 in P2(1)/n
REM SHELXT solution in P2(1): R1 0.241, Rweak 0.078, Alpha 0.178
REM <I/s>   2.138 for    6 systematic absences,  Orientation as input
REM Formula found by SHELXT:  C14 N6 O2

CELL  0.71073   7.0200   9.2700  11.5600   90.000   97.670   90.000
ZERR   16.000   0.0014   0.0019   0.0023    0.000    0.030    0.000
LATT -1
SYMM -X, 1/2+Y, -Z
SFAC C H N O
UNIT 16 16 16 16
L.S. 10
BOND
LIST 6
FMAP 2
PLAN 20
N001  3  0.16813  0.60543  0.81224 11.00000  0.02364   7.84
O002  4  0.79056  0.58648  0.20108 11.00000  0.05803   7.68
N003  3  0.69655  0.29168  0.40971 11.00000  0.03873   7.13
N004  3  0.39150  0.24958  0.43785 11.00000  0.01923   6.93
N005  3  0.12054  0.43090  0.61761 11.00000  0.02482   6.87
N006  3  0.19938  0.69535  0.90949 11.00000  0.01546   6.54
N007  3  0.08704  0.31826  0.53132 11.00000  0.02606   6.51
C008  1  0.07173  0.77250  0.96606 11.00000  0.01597   6.42
C009  1  0.47069  0.48671  0.13645 11.00000  0.02407   6.38
C00A  1  0.58467  0.66665  0.02475 11.00000  0.01357   6.16
C00B  1 -0.00382  0.61618  0.73713 11.00000  0.02573   6.00
C00C  1  0.15053  0.85146  1.07064 11.00000  0.01626   5.97
C00D  1  0.31651  0.52589  0.79206 11.00000  0.02442   5.96
C00E  1  0.56769  0.24835  0.47510 11.00000  0.02574   5.94
C00F  1 -0.03481  0.51260  0.64338 11.00000  0.02523   5.93
O00G  4 -0.09536  0.76422  0.94525 11.00000  0.03970   5.73
C00H  1  0.80389  0.49470  0.28965 11.00000  0.02415   5.46
C00I  1  0.66891  0.14854  0.57642 11.00000  0.03509   5.44
C00J  1  0.48723  0.40276  0.23373 11.00000  0.01991   5.43
C00K  1  0.61299  0.59452  0.12199 11.00000  0.03267   4.97
C00L  1  0.65203  0.39395  0.31273 11.00000  0.03568   4.84
C00M  1  0.28928  0.42807  0.68897 11.00000  0.02377   3.84
HKLF 4
END
