TITL SP14R08_expF_1_1_expS_1_4_SP14R08_c.res in P2(1)
REM Old TITL SP14R08 in P2(1)/n
REM SHELXT solution in P2(1): R1 0.362, Rweak 0.016, Alpha 0.029
REM <I/s>   0.911 for    6 systematic absences,  Orientation as input
REM Formula found by SHELXT:  C17 N3 O2

CELL  0.71073   7.0200   9.2700  11.5600   90.000   97.670   90.000
ZERR   16.000   0.0014   0.0019   0.0023    0.000    0.030    0.000
LATT -1
SYMM -X, 1/2+Y, -Z
SFAC C H N O
UNIT 16 16 16 16
L.S. 10
BOND
LIST 6
FMAP 2
PLAN 20
N001  3  0.90956  0.32806  0.47426 11.00000  0.04390   6.95
N002  3  0.21633  0.57784  0.80663 11.00000  0.07074   6.76
N003  3  1.03210  0.51337  0.35841 11.00000  0.06568   6.51
C004  1  0.30054  0.30469  0.58941 11.00000  0.04632   6.23
C005  1  0.80422  0.70009  0.09097 11.00000  0.03847   6.20
O006  4  0.60381  0.24792  0.55797 11.00000  0.06127   6.16
C007  1  0.88006  0.42022  0.37968 11.00000  0.05010   6.15
C008  1  0.83501  0.60488  0.18833 11.00000  0.04448   6.12
C009  1  0.19284  0.49449  0.70790 11.00000  0.04689   6.10
C00A  1  0.33707  0.39175  0.68826 11.00000  0.04626   6.07
C00B  1  0.53255  0.48486  0.85896 11.00000  0.04604   5.93
C00C  1  0.41679  0.67410  0.97129 11.00000  0.04125   5.88
C00D  1  0.51188  0.39760  0.76625 11.00000  0.04432   5.87
C00E  1  0.43205  0.23669  0.53311 11.00000  0.05163   5.73
C00F  1  0.92712  0.76435  0.02921 11.00000  0.04884   5.70
C00G  1  0.84052  0.84879 -0.07458 11.00000  0.05748   5.69
C00H  1  0.70699  0.41959  0.30725 11.00000  0.04619   5.61
C00I  1  1.00786  0.61329  0.26423 11.00000  0.05016   5.55
C00J  1  0.69126  0.52658  0.21397 11.00000  0.05654   5.47
O00K  4  1.10607  0.76132  0.05927 11.00000  0.06065   5.35
C00L  1  0.38374  0.58276  0.88052 11.00000  0.04703   5.22
C00M  1  0.34016  0.15121  0.42718 11.00000  0.05218   4.65
HKLF 4
END
