TITL SP14R08_expF_1_5_expS_1_3_SP14R08_a.res in P2(1)/n
REM Old TITL SP14R08 in P2(1)/n
REM SHELXT solution in P2(1)/n: R1 0.500, Rweak 0.030, Alpha 0.023
REM <I/s>   2.916 for  107 systematic absences,  Orientation as input
REM Formula found by SHELXT:  C8 N O2

CELL  0.71073   7.0200   9.2700  11.5600   90.000   97.670   90.000
ZERR   16.000   0.0014   0.0019   0.0023    0.000    0.030    0.000
LATT  1
SYMM 1/2-X, 1/2+Y, 1/2-Z
SFAC C H N O
UNIT 16 16 16 16
L.S. 10
BOND
LIST 6
FMAP 2
PLAN 20
O001  4  0.34164  0.92836  0.27693 11.00000  0.09905   7.22
N002  3  0.20842  0.73577  0.38940 11.00000  0.09849   6.84
C003  1  0.44573  0.54622  0.65979 11.00000  0.07125   6.31
C004  1  0.56371  0.73687  0.54040 11.00000  0.07428   6.09
C005  1  0.54256  0.83113  0.44503 11.00000  0.07662   6.00
C006  1  0.36537  0.82908  0.36983 11.00000  0.06979   5.77
C007  1  0.31999  0.48871  0.71835 11.00000  0.07603   5.71
C008  1  0.40773  0.64483  0.56097 11.00000  0.06915   5.69
C009  1  0.23708  0.63734  0.48368 11.00000  0.06939   5.60
O00A  4  0.14474  0.49695  0.69226 11.00000  0.09262   5.28
C00B  1  0.40978  0.39844  0.82433 11.00000  0.08498   4.80
HKLF 4
END
