TITL SP14R08_expF_0_6_expS_0_8_SP14R08_a.res in Pn
REM Old TITL SP14R08 in P2(1)/n
REM SHELXT solution in Pn: R1 0.263, Rweak 0.391, Alpha 0.212
REM <I/s>   1.012 for   97 systematic absences,  Orientation as input
REM Formula found by SHELXT:  C13 N7 O7 Cl5

CELL  0.71073   7.0200   9.2700  11.5600   90.000   97.670   90.000
ZERR   16.000   0.0014   0.0019   0.0023    0.000    0.030    0.000
LATT -1
SYMM 1/2+X, -Y, 1/2+Z
SFAC C H N O CL
UNIT 16 16 16 16 0
L.S. 10
BOND
LIST 6
FMAP 2
PLAN 20
CL01  5  0.51567  0.89792  0.76769 11.00000  0.02158  18.83
CL02  5  0.41092  0.23543  0.43888 11.00000  0.01674  17.11
CL03  5  0.39460  1.07564  0.88006 11.00000  0.02631  15.79
CL04  5  0.58224  0.23564  0.47371 11.00000  0.04917  14.64
CL05  5  0.30466  0.80530  0.59725 11.00000  0.02962  13.25
O006  4  0.58453  0.68620  0.02438 11.00000  0.00010  12.46
O007  4  0.69213  0.29874  0.41865 11.00000  0.00010  12.13
O008  4  0.34613  0.64735  0.42081 11.00000  0.00010  11.20
N009  3  0.83128  0.48791  0.29233 11.00000  0.00010  11.13
N00A  3  0.67817  0.38943  0.31092 11.00000  0.00010  10.93
N00B  3  0.48595  0.47866  0.14205 11.00000  0.00010  10.66
O00C  4  0.65523  0.14739  0.55913 11.00000  0.00010  10.12
N00D  3  0.22151  0.98163  0.70786 11.00000  0.00010   9.92
N00E  3  0.36589  0.88568  0.68670 11.00000  0.00010   9.20
O00F  4  0.55343  1.00419  0.85706 11.00000  0.00010   8.52
N00G  3  0.80400  0.57236  0.19839 11.00000  0.00010   8.41
O00H  4  0.41890  1.17151  0.96784 11.00000  0.00010   8.24
O00I  4  0.61403  0.76039  0.55891 11.00000  0.01883   7.01
N00J  3  0.26921  0.56491  0.07716 11.00000  0.03380   6.65
C00K  1  0.43742  0.73666  0.53539 11.00000  0.00010   6.61
C00L  1  0.22244  1.09666  0.80587 11.00000  0.00010   5.13
C00M  1  0.41156  0.47550  0.48676 11.00000  0.03370   4.71
C00N  1  0.32288  0.97976  0.97562 11.00000  0.02196   4.71
C00O  1  0.45054  0.88777  0.40265 11.00000  0.03894   4.53
C00P  1  0.59084  0.53120  0.30671 11.00000  0.02337   4.49
C00Q  1  0.60832  0.69573  0.24161 11.00000  0.01758   4.43
C00R  1  0.48479  0.42663  0.28536 11.00000  0.05703   4.38
C00S  1  0.59047  0.60098  0.12572 11.00000  0.00869   4.26
C00T  1  0.16872  0.79162  0.68715 11.00000  0.10360   4.26
C00U  1  0.66828  1.16863  0.81978 11.00000  0.03337   4.06
C00V  1  0.25118  0.36429  0.41333 11.00000  0.06066   3.94
C00W  1  0.66275  0.48420  0.14765 11.00000  0.04675   3.89
HKLF 4
END
