TITL SP14R08_expF_1_5_expS_0_6_SP14R08_b.res in Pn
REM Old TITL SP14R08 in P2(1)/n
REM SHELXT solution in Pn: R1 0.238, Rweak 0.081, Alpha 0.063
REM <I/s>   1.249 for  101 systematic absences,  Orientation as input
REM Formula found by SHELXT:  C11 N7 O3

CELL  0.71073   7.0200   9.2700  11.5600   90.000   97.670   90.000
ZERR   16.000   0.0014   0.0019   0.0023    0.000    0.030    0.000
LATT -1
SYMM 1/2+X, -Y, 1/2+Z
SFAC C H N O
UNIT 16 16 16 16
L.S. 10
BOND
LIST 6
FMAP 2
PLAN 20
N001  3  0.67570  0.26478  0.28086 11.00000  0.00057   9.50
O002  4  0.41193  0.15468  0.82290 11.00000  0.03232   7.88
O003  4  0.45846 -0.07964  0.55508 11.00000  0.04446   7.58
N004  3  0.66489 -0.17175  0.72114 11.00000  0.02687   7.14
N005  3  0.22390  0.48991  0.38824 11.00000  0.03024   6.83
N006  3  0.22419  0.39272  0.48256 11.00000  0.02683   6.77
N007  3  0.43819  0.02620  0.46148 11.00000  0.03311   6.73
N008  3  0.44865  0.30036  0.65965 11.00000  0.02175   6.58
N009  3  0.55077  0.19943  0.33838 11.00000  0.03114   6.54
C00A  1  0.14939  0.24319  0.69409 11.00000  0.02318   6.49
C00B  1  0.36768  0.57668  0.37313 11.00000  0.01887   6.38
C00C  1  0.58311  0.10423  0.43576 11.00000  0.02547   6.35
O00D  4  0.85061  0.25469  0.31157 11.00000  0.03104   5.87
C00E  1  0.40905  0.38889  0.56006 11.00000  0.02138   5.64
C00F  1  0.78883  0.01572  0.61000 11.00000  0.02424   5.26
C00G  1  0.74305  0.10582  0.51384 11.00000  0.02189   5.24
C00H  1  0.63489 -0.08578  0.63667 11.00000  0.02977   5.17
C00I  1  0.33728  0.67488  0.27568 11.00000  0.01589   4.82
C00J  1  0.55721  0.49673  0.54212 11.00000  0.02108   4.29
C00K  1  0.53265  0.57749  0.44494 11.00000  0.03670   4.11
C00L  1  0.59561  0.36436  0.17710 11.00000  0.04270   3.15
HKLF 4
END
