TITL SP14R08_expF_0_5_expS_0_6_SP14R08_a.res in P2
REM Old TITL SP14R08 in P2(1)/n
REM SHELXT solution in P2: R1 0.149, Rweak 0.501, Alpha 0.208
REM <I/s>   0.000 for    0 systematic absences,  Orientation as input
REM Formula found by SHELXT:  C68 N27 O3 I

CELL  0.71073   7.0200   9.2700  11.5600   90.000   97.670   90.000
ZERR   16.000   0.0014   0.0019   0.0023    0.000    0.030    0.000
LATT -1
SYMM -X, Y, -Z
SFAC C H N O I
UNIT 16 16 16 16 0
L.S. 10
BOND
LIST 6
FMAP 2
PLAN 20
I001  5  0.00000  1.05044  0.50000 10.50000  0.00010 134.02
O002  4  0.50000  0.51967  1.00000 10.50000  0.02125  15.27
O003  4  0.50000  0.35387  1.00000 10.50000  0.03461  14.34
N004  3  0.11350  0.86502  0.37941 11.00000  0.01998  12.02
N005  3  0.50000 -0.15514  1.00000 10.50000  0.02094  11.93
N006  3  0.21657  0.52728  0.56574 11.00000  0.02992  11.46
N007  3  0.50000  0.01107  1.00000 10.50000  0.02808  11.13
O008  4  0.50000  0.17378  1.00000 10.50000  0.05618  11.13
N009  3  0.23591  0.86047  0.74928 11.00000  0.07447   9.80
N00A  3  0.19377  1.14220  0.67541 11.00000  0.03764   9.54
N00B  3  0.09321  0.38403  0.67256 11.00000  0.09174   8.64
N00C  3  0.62540  0.09216  0.87928 11.00000  0.07016   8.15
N00D  3  0.23864  0.92979  0.68696 11.00000  0.15454   8.07
N00E  3  0.56754  0.16124  0.73685 11.00000  0.10689   7.18
N00F  3  0.76640  0.01386  0.88594 11.00000  0.08807   7.05
N00G  3  0.50000  0.66096  1.00000 10.50000  0.04270   6.58
N00H  3  0.85846  0.36100  0.71525 11.00000  0.16779   6.53
C00I  1  0.26719  0.73505  0.92755 11.00000  0.06930   6.44
C00J  1  0.62262  0.38533  0.73663 11.00000  0.16795   6.32
C00K  1  0.27569  0.17298  0.94397 11.00000  0.05375   6.31
C00L  1  0.21311  0.30901  0.44857 11.00000  0.24895   6.26
C00M  1  0.32481  1.15514  0.56379 11.00000  0.09426   6.23
C00N  1  0.26001  0.48438  0.66258 11.00000  0.08178   6.22
C00O  1  0.04359  0.52440  0.58660 11.00000  0.08011   6.04
C00P  1  0.27260  0.34090  0.67681 11.00000  0.12288   5.97
C00Q  1  0.80469 -0.10888  0.90144 11.00000  0.09545   5.86
C00R  1  0.31774  0.91254  0.67013 11.00000  0.13284   5.84
C00S  1  0.57745  0.65681  0.80935 11.00000  0.17100   5.71
C00T  1  0.33803  1.02661  0.66480 11.00000  0.12263   5.54
C00U  1  0.31324  0.17598  0.83888 11.00000  0.09361   5.53
C00V  1  0.08848  0.78682  0.78618 11.00000  0.05848   5.47
C00W  1  0.24525  0.88155  0.49084 11.00000  0.18406   5.42
C00X  1  0.44879  0.48268  0.74859 11.00000  0.10873   5.42
C00Y  1 -0.08558  0.81320  0.42077 11.00000  0.10603   5.40
N00Z  3  0.48191  0.08771  0.91447 11.00000  0.08430   5.34
C010  1  0.02244  0.67542  0.39598 11.00000  0.07023   5.28
C011  1  0.27791  0.82401  0.86228 11.00000  0.10215   5.24
C012  1  0.80369 -0.00771  1.02334 11.00000  0.13426   5.23
C013  1  0.30686  0.87542  0.33924 11.00000  0.15095   5.21
C014  1  0.14904  0.62413  0.34802 11.00000  0.10524   5.12
C015  1  0.92708  0.26638  0.78762 11.00000  0.14639   5.08
C016  1  0.68891 -0.01274  0.80470 11.00000  0.12256   5.02
C017  1 -0.04850  0.95060  0.40134 11.00000  0.03579   5.01
C018  1  0.15500  0.79925  0.28685 11.00000  0.21784   5.01
C019  1  0.30366  0.72860  0.38434 11.00000  0.06496   4.96
C01A  1  0.39746  0.81200  0.57756 11.00000  0.09272   4.91
C01B  1  0.12424  0.90210  0.28666 11.00000  0.10128   4.91
C01C  1  0.64023  0.21418  0.88624 11.00000  0.08451   4.83
C01D  1  0.52462  0.42448  0.57909 11.00000  0.16916   4.82
C01E  1  0.18055  0.65238  0.48478 11.00000  0.15492   4.78
N01F  3  0.29016  0.41423  0.51474 11.00000  0.22923   4.78
C01G  1  0.31351  0.78027  0.43650 11.00000  0.10488   4.77
C01H  1  0.04242  0.22809  0.36910 11.00000  0.11812   4.75
HKLF 4
END
