TITL SP14R08_expF_0_8_expS_1_3_SP14R08_a.res in P2(1)/n
REM Old TITL SP14R08 in P2(1)/n
REM SHELXT solution in P2(1)/n: R1 0.269, Rweak 0.047, Alpha 0.109
REM <I/s>   1.411 for  107 systematic absences,  Orientation as input
REM Formula found by SHELXT:  C9 N O

CELL  0.71073   7.0200   9.2700  11.5600   90.000   97.670   90.000
ZERR   16.000   0.0014   0.0019   0.0023    0.000    0.030    0.000
LATT  1
SYMM 1/2-X, 1/2+Y, 1/2-Z
SFAC C H N O
UNIT 16 16 16 16
L.S. 10
BOND
LIST 6
FMAP 2
PLAN 20
N001  3  0.55114  0.55103  0.33924 11.00000  0.03122   6.51
C002  1  0.66400  0.92534  0.72179 11.00000  0.02023   6.27
O003  4  0.85004  0.49377  0.30834 11.00000  0.04168   6.23
C004  1  0.67922  0.48823  0.27900 11.00000  0.02432   6.17
C005  1  0.78213  0.73628  0.60936 11.00000  0.02681   6.03
C006  1  0.58784  0.64303  0.43840 11.00000  0.02562   6.03
C007  1  0.63278  0.82905  0.63050 11.00000  0.02745   5.92
C008  1  0.75893  0.64349  0.51465 11.00000  0.02617   5.71
C009  1  0.46213  0.82925  0.55568 11.00000  0.03119   5.63
C00A  1  0.43910  0.73521  0.45930 11.00000  0.02899   5.49
C00B  1  0.59168  0.39883  0.17678 11.00000  0.02885   5.44
HKLF 4
END
