TITL SP14R08_expF_1_0_expS_1_0_SP14R08_b.res in Pn
REM Old TITL SP14R08 in P2(1)/n
REM SHELXT solution in Pn: R1 0.227, Rweak 0.054, Alpha 0.038
REM <I/s>   1.344 for  101 systematic absences,  Orientation as input
REM Formula found by SHELXT:  C11 N3 O8

CELL  0.71073   7.0200   9.2700  11.5600   90.000   97.670   90.000
ZERR   16.000   0.0014   0.0019   0.0023    0.000    0.030    0.000
LATT -1
SYMM 1/2+X, -Y, 1/2+Z
SFAC C H N O
UNIT 16 16 16 16
L.S. 10
BOND
LIST 6
FMAP 2
PLAN 20
O001  4  0.33312  1.16896  0.27183 11.00000  0.01434  10.09
N002  3  0.41475  0.90152  0.56000 11.00000  0.01912  10.04
O003  4  0.53785  1.07272  0.43996 11.00000  0.04154   9.71
O004  4  0.85144  0.75638  0.30716 11.00000  0.03672   9.05
O005  4  0.21936  0.98298  0.38857 11.00000  0.02745   8.83
O006  4  0.54546  0.69790  0.33588 11.00000  0.03785   8.40
C007  1  0.68182  0.76517  0.27656 11.00000  0.02144   8.29
C008  1  0.63869  0.41780  0.62554 11.00000  0.02326   7.56
O009  4  0.59464  0.86239  0.17675 11.00000  0.04571   7.52
N00A  3  0.77390  0.60681  0.51840 11.00000  0.02110   7.46
N00B  3  0.44551  0.51466  0.45525 11.00000  0.03166   7.18
C00C  1  0.44264  0.79749  0.65665 11.00000  0.01469   6.49
C00D  1  0.56372  0.98801  0.53678 11.00000  0.02749   5.85
O00E  4  0.14856  0.74453  0.68996 11.00000  0.03313   5.60
C00F  1  0.32450  0.73940  0.71776 11.00000  0.02260   5.50
C00G  1  0.78345  0.50744  0.61022 11.00000  0.04285   5.44
C00H  1  0.25415  0.89206  0.48927 11.00000  0.02542   5.36
C00I  1  0.41092  0.65851  0.82325 11.00000  0.02789   5.24
C00J  1  0.37541  1.07943  0.36604 11.00000  0.02528   5.21
O00K  4  0.65256  0.31380  0.71126 11.00000  0.06785   4.74
C00L  1  0.45586  0.41240  0.54907 11.00000  0.03046   4.15
C00M  1  0.58672  0.61892  0.43680 11.00000  0.03450   3.57
HKLF 4
END
