TITL SP14R08_expF_0_9_expS_1_4_SP14R08_b.res in Pn
REM Old TITL SP14R08 in P2(1)/n
REM SHELXT solution in Pn: R1 0.275, Rweak 0.023, Alpha 0.025
REM <I/s>   1.662 for  101 systematic absences,  Orientation as input
REM Formula found by SHELXT:  C14 N3 O5

CELL  0.71073   7.0200   9.2700  11.5600   90.000   97.670   90.000
ZERR   16.000   0.0014   0.0019   0.0023    0.000    0.030    0.000
LATT -1
SYMM 1/2+X, -Y, 1/2+Z
SFAC C H N O
UNIT 16 16 16 16
L.S. 10
BOND
LIST 6
FMAP 2
PLAN 20
O001  4  0.28419  0.98986  0.59888 11.00000  0.05806   8.71
O002  4 -0.02654  1.08146  0.54909 11.00000  0.05395   7.86
N003  3  0.09250  0.89149  0.43256 11.00000  0.03757   7.73
N004  3  0.95102  0.69860  0.65263 11.00000  0.04663   7.43
O005  4  0.16875  1.16918  0.71828 11.00000  0.04527   7.40
C006  1  0.82836  0.76790  0.71346 11.00000  0.03683   6.63
N007  3  0.87685  0.41114  0.36705 11.00000  0.04407   6.62
O008  4  0.65409  0.75637  0.68385 11.00000  0.03960   6.44
C009  1  1.05790  0.51504  0.53318 11.00000  0.04230   6.33
C00A  1  0.92103  0.84620  0.82158 11.00000  0.04613   6.22
O00B  4  0.35737  0.74157  0.29954 11.00000  0.07464   6.03
C00C  1  0.75143  0.60576  0.48513 11.00000  0.03741   6.00
C00D  1  0.05743  0.80159  0.33315 11.00000  0.03106   5.86
C00E  1  0.91501  0.60282  0.55529 11.00000  0.04439   5.68
C00F  1  0.18295  0.74028  0.27301 11.00000  0.04270   5.67
C00G  1  1.05049  0.42044  0.43223 11.00000  0.06192   5.64
C00H  1  0.14191  1.07543  0.62660 11.00000  0.04148   5.57
C00I  1  0.84793  0.32043  0.27440 11.00000  0.03438   5.52
C00J  1 -0.05790  0.98367  0.45325 11.00000  0.03788   5.48
C00K  1  0.26853  0.89356  0.51249 11.00000  0.03877   5.25
C00L  1  0.10240  0.64733  0.17842 11.00000  0.04497   5.10
C00M  1  0.72073  0.51471  0.38053 11.00000  0.04704   4.06
HKLF 4
END
