TITL SP14R08_expF_1_3_expS_1_2_SP14R08_b.res in Pn
REM Old TITL SP14R08 in P2(1)/n
REM SHELXT solution in Pn: R1 0.355, Rweak 0.015, Alpha 0.011
REM <I/s>   1.840 for  101 systematic absences,  Orientation as input
REM Formula found by SHELXT:  C12 N8 O2

CELL  0.71073   7.0200   9.2700  11.5600   90.000   97.670   90.000
ZERR   16.000   0.0014   0.0019   0.0023    0.000    0.030    0.000
LATT -1
SYMM 1/2+X, -Y, 1/2+Z
SFAC C H N O
UNIT 16 16 16 16
L.S. 10
BOND
LIST 6
FMAP 2
PLAN 20
N001  3  0.41015  0.10378  0.56138 11.00000  0.04742   8.16
N002  3  0.22053  0.01249  0.39280 11.00000  0.04680   7.36
N003  3  0.63621  0.58174  0.63266 11.00000  0.04760   7.05
N004  3  0.66151  0.67670  0.72201 11.00000  0.04968   6.91
C005  1  0.32246  0.25837  0.72029 11.00000  0.04567   6.90
N006  3  0.44284  0.48079  0.46327 11.00000  0.05575   6.89
N007  3  0.54073 -0.08424  0.44751 11.00000  0.05781   6.85
N008  3  0.33455 -0.17237  0.27723 11.00000  0.04123   6.67
N009  3  0.44377  0.19497  0.65794 11.00000  0.05473   6.52
C00A  1  0.55039  0.29895  0.33809 11.00000  0.03774   6.29
O00B  4  0.14608  0.25306  0.69468 11.00000  0.05741   6.24
C00C  1  0.46282  0.57557  0.56147 11.00000  0.05453   6.21
C00D  1  0.76127  0.39275  0.51669 11.00000  0.04074   6.18
C00E  1  0.41375  0.35061  0.82467 11.00000  0.05351   5.85
O00F  4  0.85392  0.24183  0.31250 11.00000  0.06136   5.83
C00G  1  0.78655  0.48343  0.61082 11.00000  0.06000   5.60
C00H  1  0.24089  0.10711  0.48607 11.00000  0.05481   5.52
C00I  1  0.68122  0.23018  0.28135 11.00000  0.05032   5.30
C00J  1  0.59634  0.15037  0.17533 11.00000  0.05393   4.92
C00K  1  0.56056  0.01206  0.54189 11.00000  0.05404   4.83
C00L  1  0.37288 -0.07933  0.37260 11.00000  0.06124   4.72
C00M  1  0.58654  0.38773  0.43668 11.00000  0.05217   4.42
HKLF 4
END
