TITL SP14R08_expF_1_2_expS_1_1_SP14R08_a.res in P2(1)/n
REM Old TITL SP14R08 in P2(1)/n
REM SHELXT solution in P2(1)/n: R1 0.306, Rweak 0.022, Alpha 0.058
REM <I/s>   1.724 for  107 systematic absences,  Orientation as input
REM Formula found by SHELXT:  C9 N O

CELL  0.71073   7.0200   9.2700  11.5600   90.000   97.670   90.000
ZERR   16.000   0.0014   0.0019   0.0023    0.000    0.030    0.000
LATT  1
SYMM 1/2-X, 1/2+Y, 1/2-Z
SFAC C H N O
UNIT 16 16 16 16
L.S. 10
BOND
LIST 6
FMAP 2
PLAN 20
N001  3  0.44811  0.55274  0.66055 11.00000  0.04437   6.51
C002  1  0.33817  0.92317  0.27723 11.00000  0.02940   6.47
O003  4  0.14976  0.49345  0.69177 11.00000  0.05473   6.10
C004  1  0.21791  0.73718  0.39047 11.00000  0.03804   6.07
C005  1  0.31989  0.48799  0.72059 11.00000  0.03844   6.00
C006  1  0.41139  0.64400  0.56150 11.00000  0.03604   5.99
C007  1  0.53657  0.82957  0.44380 11.00000  0.04396   5.90
C008  1  0.36782  0.83046  0.36956 11.00000  0.03949   5.81
C009  1  0.23922  0.64273  0.48595 11.00000  0.03925   5.72
C00A  1  0.55870  0.73400  0.53983 11.00000  0.04202   5.70
C00B  1  0.40897  0.39975  0.82300 11.00000  0.04515   5.34
HKLF 4
END
