TITL SP14R08_expF_1_2_expS_1_3_SP14R08_a.res in P2(1)/n
REM Old TITL SP14R08 in P2(1)/n
REM SHELXT solution in P2(1)/n: R1 0.381, Rweak 0.015, Alpha 0.019
REM <I/s>   1.775 for  107 systematic absences,  Orientation as input
REM Formula found by SHELXT:  C9 N O

CELL  0.71073   7.0200   9.2700  11.5600   90.000   97.670   90.000
ZERR   16.000   0.0014   0.0019   0.0023    0.000    0.030    0.000
LATT  1
SYMM 1/2-X, 1/2+Y, 1/2-Z
SFAC C H N O
UNIT 16 16 16 16
L.S. 10
BOND
LIST 6
FMAP 2
PLAN 20
N001  3  0.66108  0.07472  0.72183 11.00000  0.04383   6.52
C002  1  0.55417  0.44801  0.34130 11.00000  0.04046   6.28
C003  1  0.78273  0.26355  0.60892 11.00000  0.04735   6.22
C004  1  0.45897  0.16938  0.55724 11.00000  0.05039   6.18
C005  1  0.58952  0.35713  0.43666 11.00000  0.04440   6.13
O006  4  0.85536  0.50579  0.30817 11.00000  0.05878   5.90
C007  1  0.67744  0.51293  0.27817 11.00000  0.04798   5.77
C008  1  0.43982  0.26661  0.46055 11.00000  0.05001   5.74
C009  1  0.76367  0.35738  0.51614 11.00000  0.04507   5.68
C00A  1  0.63316  0.16923  0.62977 11.00000  0.04540   5.66
C00B  1  0.58795  0.60143  0.17585 11.00000  0.05342   5.37
HKLF 4
END
