TITL SP14R08_expF_0_6_expS_0_9_SP14R08_a.res in Pn
REM Old TITL SP14R08 in P2(1)/n
REM SHELXT solution in Pn: R1 0.271, Rweak 0.330, Alpha 0.165
REM <I/s>   1.043 for   97 systematic absences,  Orientation as input
REM Formula found by SHELXT:  C7 N3 O8

CELL  0.71073   7.0200   9.2700  11.5600   90.000   97.670   90.000
ZERR   16.000   0.0014   0.0019   0.0023    0.000    0.030    0.000
LATT -1
SYMM 1/2+X, -Y, 1/2+Z
SFAC C H N O
UNIT 16 16 16 16
L.S. 10
BOND
LIST 6
FMAP 2
PLAN 20
O001  4  0.75999  0.39184  0.52259 11.00000  0.00010  10.35
O002  4  0.53561 -0.07728  0.44992 11.00000  0.00010   9.75
O003  4  0.85027  0.24766  0.32106 11.00000  0.00734   9.69
O004  4  0.62652  0.57633  0.63295 11.00000  0.00010   8.76
O005  4  0.44716  0.19560  0.66317 11.00000  0.00010   8.08
O006  4  0.34476 -0.16192  0.28227 11.00000  0.01104   7.97
O007  4  0.21271  0.01271  0.39756 11.00000  0.00428   7.83
N008  3  0.68004  0.23675  0.28141 11.00000  0.00528   7.39
N009  3  0.55524  0.00802  0.54466 11.00000  0.00010   7.27
N00A  3  0.59653  0.14992  0.18024 11.00000  0.00010   6.67
C00B  1  0.54569  0.29110  0.34151 11.00000  0.01674   6.16
C00C  1  0.59507  0.39129  0.44755 11.00000  0.00010   6.08
O00D  4  0.42437  0.34801  0.81976 11.00000  0.04951   5.14
C00E  1  0.42797  0.10388  0.57397 11.00000  0.01115   4.86
C00F  1  0.67380  0.68837  0.72676 11.00000  0.00010   4.85
C00G  1  0.14973  0.25843  0.69760 11.00000  0.00010   4.83
C00H  1  0.31831  0.26828  0.71519 11.00000  0.00946   4.46
C00I  1  0.77640  0.48268  0.62771 11.00000  0.02040   3.85
HKLF 4
END
