TITL SP14R08_expF_1_4_expS_0_8_SP14R08_b.res in Pn
REM Old TITL SP14R08 in P2(1)/n
REM SHELXT solution in Pn: R1 0.241, Rweak 0.034, Alpha 0.023
REM <I/s>   1.478 for  101 systematic absences,  Orientation as input
REM Formula found by SHELXT:  C10 N5 O8

CELL  0.71073   7.0200   9.2700  11.5600   90.000   97.670   90.000
ZERR   16.000   0.0014   0.0019   0.0023    0.000    0.030    0.000
LATT -1
SYMM 1/2+X, -Y, 1/2+Z
SFAC C H N O
UNIT 16 16 16 16
L.S. 10
BOND
LIST 6
FMAP 2
PLAN 20
N001  3  0.90585  0.89386  0.56483 11.00000  0.02638   9.54
C002  1  0.81737  0.73584  0.72214 11.00000  0.02710   9.30
O003  4  0.04955  0.69725  0.34529 11.00000  0.03936   9.19
O004  4  1.02528  1.07617  0.44537 11.00000  0.02936   9.03
N005  3  0.12770  0.41159  0.63078 11.00000  0.02844   8.99
O006  4  0.24987  0.60325  0.51714 11.00000  0.02952   8.93
O007  4  0.34702  0.75034  0.31376 11.00000  0.03194   7.90
N008  3  0.26815  0.51053  0.61407 11.00000  0.03413   7.71
N009  3 -0.05956  0.51676  0.46230 11.00000  0.03413   7.48
O00A  4  0.82809  1.16529  0.28115 11.00000  0.03552   7.48
O00B  4  0.15325  0.31735  0.72559 11.00000  0.03729   7.22
N00C  3  0.70564  0.98576  0.39722 11.00000  0.03493   6.74
C00D  1  0.07914  0.85722  0.17585 11.00000  0.03429   6.49
O00E  4  0.64394  0.73685  0.69562 11.00000  0.04457   6.44
C00F  1  0.89656  0.65333  0.82415 11.00000  0.02556   6.28
C00G  1  0.94498  0.79925  0.66624 11.00000  0.02213   5.85
C00H  1  1.06091  0.98901  0.54314 11.00000  0.02837   5.80
C00I  1 -0.06091  0.41477  0.55445 11.00000  0.06064   5.22
C00J  1  0.17291  0.76090  0.28235 11.00000  0.02365   4.57
C00K  1  0.86290  1.07382  0.36964 11.00000  0.03171   4.30
C00L  1  0.08123  0.60781  0.44197 11.00000  0.03294   4.30
C00M  1  0.72863  0.88598  0.48676 11.00000  0.04263   4.18
O00N  4  0.40194  0.50849  0.68035 11.00000  0.22816   3.25
HKLF 4
END
