TITL SP14R08_expF_1_0_expS_0_8_SP14R08_b.res in Pn
REM Old TITL SP14R08 in P2(1)/n
REM SHELXT solution in Pn: R1 0.234, Rweak 0.118, Alpha 0.070
REM <I/s>   1.169 for  101 systematic absences,  Orientation as input
REM Formula found by SHELXT:  C10 N4 O6

CELL  0.71073   7.0200   9.2700  11.5600   90.000   97.670   90.000
ZERR   16.000   0.0014   0.0019   0.0023    0.000    0.030    0.000
LATT -1
SYMM 1/2+X, -Y, 1/2+Z
SFAC C H N O
UNIT 16 16 16 16
L.S. 10
BOND
LIST 6
FMAP 2
PLAN 20
N001  3  0.15042  1.08638  0.63583 11.00000  0.01679   9.72
O002  4  0.05594  0.80684  0.33919 11.00000  0.03110   9.52
O003  4 -0.04551  0.98493  0.45871 11.00000  0.01001   9.35
O004  4  0.92260  0.60668  0.56203 11.00000  0.00355   8.95
N005  3  0.82620  0.75667  0.72151 11.00000  0.01792   8.50
N006  3 -0.04411  1.09172  0.55490 11.00000  0.05017   7.29
O007  4  0.36135  0.74072  0.30878 11.00000  0.01024   7.24
N008  3  0.18028  1.17298  0.72336 11.00000  0.02135   6.61
C009  1  0.66140  0.75616  0.68543 11.00000  0.02815   6.34
C00A  1  0.30230  0.98970  0.61493 11.00000  0.01618   6.32
C00B  1  0.10459  0.64656  0.17640 11.00000  0.01247   6.14
C00C  1  0.73346  0.51818  0.39483 11.00000  0.01353   6.03
O00D  4  0.26274  0.89544  0.51817 11.00000  0.03318   6.01
C00E  1  0.92125  0.84802  0.82360 11.00000  0.02287   5.92
O00F  4  0.85089  0.32579  0.27938 11.00000  0.02760   5.90
C00G  1  0.74770  0.61111  0.48906 11.00000  0.02097   5.25
C00H  1  0.95235  0.70537  0.65970 11.00000  0.00827   4.34
C00I  1  0.18740  0.72920  0.28450 11.00000  0.01773   4.22
C00J  1  1.04551  0.42701  0.44611 11.00000  0.00552   4.16
C00K  1  0.88349  0.42311  0.37255 11.00000  0.02459   3.05
HKLF 4
END
