TITL SP14R08_expF_0_9_expS_0_9_SP14R08_a.res in Pn
REM Old TITL SP14R08 in P2(1)/n
REM SHELXT solution in Pn: R1 0.228, Rweak 0.101, Alpha 0.064
REM <I/s>   1.177 for  101 systematic absences,  Orientation as input
REM Formula found by SHELXT:  C12 N4 O6

CELL  0.71073   7.0200   9.2700  11.5600   90.000   97.670   90.000
ZERR   16.000   0.0014   0.0019   0.0023    0.000    0.030    0.000
LATT -1
SYMM 1/2+X, -Y, 1/2+Z
SFAC C H N O
UNIT 16 16 16 16
L.S. 10
BOND
LIST 6
FMAP 2
PLAN 20
O001  4  0.74319  0.89268  0.48805 11.00000  0.00124  11.59
C002  1  0.86396  1.07423  0.37251 11.00000  0.00473   9.07
O003  4  0.84515  1.16839  0.28069 11.00000  0.00950   8.43
O004  4 -0.04599  0.41635  0.55225 11.00000  0.03982   7.52
C005  1  0.18330  0.76546  0.28505 11.00000  0.01223   7.39
O006  4  0.65004  0.74711  0.69427 11.00000  0.02865   7.18
N007  3  0.89964  0.65324  0.82339 11.00000  0.01516   7.16
N008  3  0.95760  0.80019  0.66587 11.00000  0.01341   6.97
N009  3  0.06242  0.69978  0.34642 11.00000  0.02007   6.78
O00A  4  0.35309  0.76241  0.31317 11.00000  0.02214   6.70
C00B  1  0.71398  0.98971  0.39526 11.00000  0.02087   6.63
N00C  3  0.27710  0.51708  0.61547 11.00000  0.02076   6.55
C00D  1  0.09371  0.61172  0.44315 11.00000  0.01830   6.35
C00E  1 -0.05952  0.51684  0.46404 11.00000  0.01810   5.94
C00F  1  1.05952  0.98959  0.54488 11.00000  0.01620   5.75
C00G  1  0.91518  0.89418  0.56568 11.00000  0.01445   5.59
C00H  1  0.17975  0.31087  0.72210 11.00000  0.03023   5.37
C00I  1  0.82574  0.73775  0.72497 11.00000  0.01894   5.33
C00J  1  0.08064  0.85730  0.17661 11.00000  0.02743   5.19
C00K  1  1.03862  1.07332  0.44270 11.00000  0.02273   3.72
O00L  4  0.58615  0.97632  0.34169 11.00000  0.26322   3.29
C00M  1  0.12585  0.41444  0.63118 11.00000  0.02665   3.26
HKLF 4
END
