TITL SP14R08_expF_1_2_expS_0_9_SP14R08_a.res in P2(1)/n
REM Old TITL SP14R08 in P2(1)/n
REM SHELXT solution in P2(1)/n: R1 0.271, Rweak 0.043, Alpha 0.084
REM <I/s>   1.469 for  107 systematic absences,  Orientation as input
REM Formula found by SHELXT:  C10 O

CELL  0.71073   7.0200   9.2700  11.5600   90.000   97.670   90.000
ZERR   16.000   0.0014   0.0019   0.0023    0.000    0.030    0.000
LATT  1
SYMM 1/2-X, 1/2+Y, 1/2-Z
SFAC C H N O
UNIT 16 16 16 16
L.S. 10
BOND
LIST 6
FMAP 2
PLAN 20
C001  1  0.55046  0.44857  0.33933 11.00000  0.02564   6.40
C002  1  0.78207  0.26307  0.60950 11.00000  0.03016   6.25
O003  4  0.85053  0.50505  0.30846 11.00000  0.04599   6.23
C004  1  0.66355  0.07535  0.72152 11.00000  0.02364   6.22
C005  1  0.67908  0.51257  0.27860 11.00000  0.02807   6.03
C006  1  0.58723  0.35650  0.43796 11.00000  0.02920   6.01
C007  1  0.46334  0.17062  0.55565 11.00000  0.03385   5.90
C008  1  0.63313  0.17013  0.63023 11.00000  0.03040   5.70
C009  1  0.75884  0.35662  0.51438 11.00000  0.02986   5.70
C00A  1  0.43908  0.26392  0.45921 11.00000  0.03215   5.69
C00B  1  0.59168  0.60082  0.17658 11.00000  0.03242   5.49
HKLF 4
END
