TITL SP14R08_expF_1_2_expS_0_8_SP14R08_b.res in Pn
REM Old TITL SP14R08 in P2(1)/n
REM SHELXT solution in Pn: R1 0.238, Rweak 0.065, Alpha 0.045
REM <I/s>   1.302 for  101 systematic absences,  Orientation as input
REM Formula found by SHELXT:  C13 N O7

CELL  0.71073   7.0200   9.2700  11.5600   90.000   97.670   90.000
ZERR   16.000   0.0014   0.0019   0.0023    0.000    0.030    0.000
LATT -1
SYMM 1/2+X, -Y, 1/2+Z
SFAC C H N O
UNIT 16 16 16 16
L.S. 10
BOND
LIST 6
FMAP 2
PLAN 20
O001  4  0.53795 -0.07940  0.45068 11.00000  0.01065   8.88
O002  4  0.76408  0.39488  0.51824 11.00000  0.03503   8.67
O003  4  0.85209  0.25250  0.31784 11.00000  0.03548   7.99
O004  4  0.55624  0.29429  0.34855 11.00000  0.02543   7.91
O005  4  0.33467 -0.17376  0.28323 11.00000  0.03021   7.28
N006  3  0.56150  0.01286  0.54597 11.00000  0.02516   6.95
C007  1  0.62995  0.58129  0.63748 11.00000  0.02792   6.89
C008  1  0.67741  0.23500  0.28278 11.00000  0.02623   6.71
C009  1  0.22580  0.01403  0.39508 11.00000  0.01906   6.40
C00A  1  0.58405  0.15032  0.17645 11.00000  0.02530   6.21
C00B  1  0.59301  0.39537  0.44133 11.00000  0.03025   5.96
C00C  1  0.78908  0.48709  0.61309 11.00000  0.02639   5.64
C00D  1  0.32094  0.26100  0.72324 11.00000  0.01458   5.55
C00E  1  0.41573  0.10901  0.56497 11.00000  0.01504   5.41
C00F  1  0.45586  0.18907  0.67307 11.00000  0.02269   5.37
O00G  4  0.66265  0.67727  0.72935 11.00000  0.03964   5.02
O00H  4  0.14791  0.26421  0.69973 11.00000  0.02893   4.51
C00I  1  0.40038  0.35181  0.82355 11.00000  0.02150   4.39
C00J  1  0.44163  0.48542  0.46544 11.00000  0.03324   4.33
C00K  1  0.36611 -0.08030  0.37482 11.00000  0.02041   4.23
C00L  1  0.24431  0.10993  0.48690 11.00000  0.02954   3.30
HKLF 4
END
