TITL SP14R08_expF_1_3_expS_1_1_SP14R08_a.res in P2(1)/n
REM Old TITL SP14R08 in P2(1)/n
REM SHELXT solution in P2(1)/n: R1 0.341, Rweak 0.017, Alpha 0.036
REM <I/s>   1.678 for  107 systematic absences,  Orientation as input
REM Formula found by SHELXT:  C9 N O

CELL  0.71073   7.0200   9.2700  11.5600   90.000   97.670   90.000
ZERR   16.000   0.0014   0.0019   0.0023    0.000    0.030    0.000
LATT  1
SYMM 1/2-X, 1/2+Y, 1/2-Z
SFAC C H N O
UNIT 16 16 16 16
L.S. 10
BOND
LIST 6
FMAP 2
PLAN 20
N001  3  0.65960  0.92485  0.72181 11.00000  0.03940   6.54
C002  1  0.55229  0.55162  0.33982 11.00000  0.03311   6.42
C003  1  0.78256  0.73648  0.60836 11.00000  0.03955   6.14
C004  1  0.58851  0.64309  0.43798 11.00000  0.03793   6.03
C005  1  0.68006  0.48803  0.28025 11.00000  0.04103   5.97
C006  1  0.46209  0.82891  0.55553 11.00000  0.04211   5.97
O007  4  0.85328  0.49328  0.30839 11.00000  0.05218   5.96
C008  1  0.63209  0.83073  0.63019 11.00000  0.03771   5.77
C009  1  0.76076  0.64224  0.51438 11.00000  0.03788   5.70
C00A  1  0.44098  0.73416  0.46034 11.00000  0.04326   5.68
C00B  1  0.58903  0.40074  0.17611 11.00000  0.04535   5.33
HKLF 4
END
