TITL SP14R08_expF_0_9_expS_1_4_SP14R08_a.res in P2(1)/n
REM Old TITL SP14R08 in P2(1)/n
REM SHELXT solution in P2(1)/n: R1 0.297, Rweak 0.025, Alpha 0.046
REM <I/s>   1.703 for  107 systematic absences,  Orientation as input
REM Formula found by SHELXT:  C10 O

CELL  0.71073   7.0200   9.2700  11.5600   90.000   97.670   90.000
ZERR   16.000   0.0014   0.0019   0.0023    0.000    0.030    0.000
LATT  1
SYMM 1/2-X, 1/2+Y, 1/2-Z
SFAC C H N O
UNIT 16 16 16 16
L.S. 10
BOND
LIST 6
FMAP 2
PLAN 20
C001  1  0.55188  0.55201  0.34011 11.00000  0.03744   6.28
C002  1  0.58793  0.64405  0.43863 11.00000  0.03900   6.20
C003  1  0.46263  0.83121  0.55728 11.00000  0.04611   6.15
C004  1  0.78263  0.73996  0.60897 11.00000  0.04298   6.06
O005  4  0.85134  0.49323  0.30849 11.00000  0.06207   5.99
C006  1  0.66083  0.92491  0.72139 11.00000  0.03259   5.99
C007  1  0.67883  0.48530  0.27890 11.00000  0.04155   5.85
C008  1  0.63253  0.83147  0.62904 11.00000  0.04030   5.76
C009  1  0.44073  0.73294  0.46064 11.00000  0.04540   5.70
C00A  1  0.75946  0.64287  0.51315 11.00000  0.04133   5.43
C00B  1  0.59113  0.40047  0.17805 11.00000  0.04686   5.41
HKLF 4
END
