TITL SP14R08_expF_1_3_expS_1_2_SP14R08_c.res in P2(1)
REM Old TITL SP14R08 in P2(1)/n
REM SHELXT solution in P2(1): R1 0.369, Rweak 0.015, Alpha 0.032
REM <I/s>   0.906 for    6 systematic absences,  Orientation as input
REM Formula found by SHELXT:  C18 N2 O2

CELL  0.71073   7.0200   9.2700  11.5600   90.000   97.670   90.000
ZERR   16.000   0.0014   0.0019   0.0023    0.000    0.030    0.000
LATT -1
SYMM -X, 1/2+Y, -Z
SFAC C H N O
UNIT 16 16 16 16
L.S. 10
BOND
LIST 6
FMAP 2
PLAN 20
N001  3  0.71082  0.41092  0.30675 11.00000  0.07103   7.13
N002  3  0.91080  0.32643  0.47263 11.00000  0.04884   6.83
C003  1  0.30094  0.29772  0.58944 11.00000  0.04236   6.44
C004  1  1.03287  0.51018  0.36030 11.00000  0.04970   6.39
C005  1  0.41591  0.67406  0.97265 11.00000  0.03694   6.25
C006  1  0.53292  0.48131  0.85908 11.00000  0.05232   6.13
C007  1  0.33888  0.38601  0.68567 11.00000  0.04356   6.10
C008  1  0.80660  0.69562  0.09126 11.00000  0.04680   6.09
C009  1  0.83751  0.60080  0.18978 11.00000  0.05164   6.02
C00A  1  0.37871  0.57426  0.88017 11.00000  0.05645   5.95
C00B  1  0.18987  0.47472  0.71221 11.00000  0.05060   5.83
O00C  4  1.10797  0.75784  0.06121 11.00000  0.06293   5.82
O00D  4  0.60097  0.24435  0.55760 11.00000  0.05919   5.76
C00E  1  0.34038  0.15051  0.42467 11.00000  0.05339   5.76
C00F  1  1.01000  0.60332  0.26512 11.00000  0.04511   5.75
C00G  1  0.42927  0.22783  0.53153 11.00000  0.05271   5.73
C00H  1  0.92861  0.75575  0.02945 11.00000  0.04852   5.69
C00I  1  0.69263  0.50665  0.20825 11.00000  0.05135   5.63
C00J  1  0.51192  0.38879  0.76469 11.00000  0.05419   5.58
C00K  1  0.88413  0.41349  0.38020 11.00000  0.04615   5.55
C00L  1  0.21014  0.57204  0.80707 11.00000  0.04892   5.26
C00M  1  0.84129  0.84949 -0.07367 11.00000  0.05931   4.56
HKLF 4
END
