TITL SP14R08_expF_0_7_expS_1_4_SP14R08_a.res in P2(1)/n
REM Old TITL SP14R08 in P2(1)/n
REM SHELXT solution in P2(1)/n: R1 0.270, Rweak 0.062, Alpha 0.141
REM <I/s>   1.384 for  107 systematic absences,  Orientation as input
REM Formula found by SHELXT:  C10 O

CELL  0.71073   7.0200   9.2700  11.5600   90.000   97.670   90.000
ZERR   16.000   0.0014   0.0019   0.0023    0.000    0.030    0.000
LATT  1
SYMM 1/2-X, 1/2+Y, 1/2-Z
SFAC C H N O
UNIT 16 16 16 16
L.S. 10
BOND
LIST 6
FMAP 2
PLAN 20
C001  1  0.44938  0.44942  0.66081 11.00000  0.02086   6.43
O002  4  0.14867  0.50566  0.69156 11.00000  0.04023   6.24
C003  1  0.33604  0.07501  0.27818 11.00000  0.02078   6.18
C004  1  0.21763  0.26360  0.39002 11.00000  0.02633   6.12
C005  1  0.32087  0.51265  0.72130 11.00000  0.02417   6.08
C006  1  0.41223  0.35638  0.56182 11.00000  0.02621   5.92
C007  1  0.36707  0.17076  0.36999 11.00000  0.02652   5.87
C008  1  0.53848  0.17068  0.44459 11.00000  0.03049   5.81
C009  1  0.24126  0.35701  0.48540 11.00000  0.02569   5.77
C00A  1  0.56127  0.26424  0.54082 11.00000  0.02864   5.69
C00B  1  0.40769  0.60074  0.82323 11.00000  0.02766   5.48
HKLF 4
END
