TITL SP14R08_expF_1_2_expS_0_6_SP14R08_b.res in P2(1)
REM Old TITL SP14R08 in P2(1)/n
REM SHELXT solution in P2(1): R1 0.257, Rweak 0.173, Alpha 0.210
REM <I/s>   1.722 for    6 systematic absences,  Orientation as input
REM Formula found by SHELXT:  C15 N2 O5

CELL  0.71073   7.0200   9.2700  11.5600   90.000   97.670   90.000
ZERR   16.000   0.0014   0.0019   0.0023    0.000    0.030    0.000
LATT -1
SYMM -X, 1/2+Y, -Z
SFAC C H N O
UNIT 16 16 16 16
L.S. 10
BOND
LIST 6
FMAP 2
PLAN 20
O001  4  0.68807  0.70325  0.40549 11.00000  0.01370   8.73
O002  4  0.46606  0.52011  0.13840 11.00000  0.02714   8.54
O003  4 -0.09996  0.23980  0.94137 11.00000  0.00645   8.43
O004  4  0.58951  0.33775  0.02511 11.00000  0.01624   7.87
N005  3  0.12163  0.57916  0.61584 11.00000  0.02842   6.87
N006  3  0.27658  0.57558  0.69462 11.00000  0.01398   6.59
C007  1  0.81392  0.50162  0.29096 11.00000  0.00566   6.45
C008  1  0.06777  0.22717  0.96956 11.00000  0.01294   6.25
C009  1  0.49494  0.60897  0.23507 11.00000  0.00959   6.23
C00A  1  0.65441  0.59470  0.30923 11.00000  0.01108   6.18
C00B  1  0.57496  0.75719  0.47140 11.00000  0.01298   6.07
C00C  1  0.16217  0.14851  1.07416 11.00000  0.00507   5.83
C00D  1  0.16661  0.38102  0.81260 11.00000  0.01336   5.82
C00E  1  0.65064  0.85149  0.57042 11.00000  0.02607   5.21
C00F  1  0.81041  0.41537  0.19680 11.00000  0.02824   5.13
C00G  1  0.61261  0.42175  0.12172 11.00000  0.01028   4.78
C00H  1 -0.01243  0.39487  0.73454 11.00000  0.02034   4.77
C00I  1  0.30963  0.46576  0.79239 11.00000  0.02283   4.32
C00J  1  0.21353  0.30618  0.91674 11.00000  0.02418   4.25
O00K  4  0.39679  0.74935  0.43785 11.00000  0.04924   4.03
C00L  1  0.08017  0.69067  0.53161 11.00000  0.01514   3.71
C00M  1 -0.02708  0.50255  0.64076 11.00000  0.02088   3.44
HKLF 4
END
