TITL SP14R08_expF_1_4_expS_1_5_SP14R08_c.res in P2(1)
REM Old TITL SP14R08 in P2(1)/n
REM SHELXT solution in P2(1): R1 0.576, Rweak 0.034, Alpha 0.099
REM <I/s>   4.411 for    6 systematic absences,  Orientation as input
REM Formula found by SHELXT:  C19 N8 O4

CELL  0.71073   7.0200   9.2700  11.5600   90.000   97.670   90.000
ZERR   16.000   0.0014   0.0019   0.0023    0.000    0.030    0.000
LATT -1
SYMM -X, 1/2+Y, -Z
SFAC C H N O
UNIT 16 16 16 16
L.S. 10
BOND
LIST 6
FMAP 2
PLAN 20
O001  4  1.08706  0.07669  0.52580 11.00000  0.08047   8.16
N002  3  1.16546  0.35447  0.81293 11.00000  0.07188   7.94
N003  3  0.38717  0.83865  0.87897 11.00000  0.08196   7.50
N004  3  0.97184  0.26281  0.64305 11.00000  0.07917   7.45
N005  3  0.52897  0.74072  0.85941 11.00000  0.07494   7.43
O006  4  0.41526  0.92331  0.97418 11.00000  0.07797   7.42
N007  3  1.29299  0.17026  0.69357 11.00000  0.08454   7.24
N008  3  0.30192  0.55534  0.58861 11.00000  0.07068   7.23
C009  1  0.33625  0.64683  0.68410 11.00000  0.06835   7.18
N00A  3  1.19979  0.44974  0.90993 11.00000  0.07103   7.14
N00B  3  0.19117  0.73957  0.70874 11.00000  0.07594   7.00
O00C  4  0.89736  0.50765  0.94636 11.00000  0.08735   6.87
C00D  1  1.11377  0.17250  0.61972 11.00000  0.06367   6.75
C00E  1  0.50839  0.64642  0.76500 11.00000  0.06564   6.60
C00F  1  1.07125  0.51449  0.96736 11.00000  0.07144   6.60
C00G  1  1.30664  0.26233  0.79247 11.00000  0.06637   6.29
C00H  1  0.99728  0.35987  0.73745 11.00000  0.07015   6.19
C00I  1  0.42785  0.48912  0.53181 11.00000  0.07577   6.05
C00J  1  0.21875  0.82889  0.80923 11.00000  0.07327   5.83
C00K  1  0.60266  0.49532  0.55673 11.00000  0.06859   5.54
C00L  1  0.34182  0.40345  0.42728 11.00000  0.08128   4.69
C00M  1  1.15885  0.59899  1.07481 11.00000  0.08606   4.50
C00N  1 -0.21283  0.81758  0.83478 11.00000  0.17976   3.93
C00O  1  0.00971  0.70653  0.85217 11.00000  0.16177   3.86
C00P  1  0.13228  0.39045  0.50262 11.00000  0.22595   3.54
O00Q  4  1.19812  0.63751  1.00186 11.00000  0.31883   3.32
C00R  1  0.75293  0.32215  0.53503 11.00000  0.35284   3.27
C00S  1  0.73912  0.56725  0.65673 11.00000  0.20797   3.22
C00T  1  0.52509  0.39095  0.36053 11.00000  0.14954   3.21
C00U  1  0.70156  0.43657  0.70101 11.00000  0.21558   3.18
C00V  1  0.60749  0.24844  0.51957 11.00000  0.23686   3.04
HKLF 4
END
