TITL SP14R08_expF_1_2_expS_0_7_SP14R08_a.res in P2(1)
REM Old TITL SP14R08 in P2(1)/n
REM SHELXT solution in P2(1): R1 0.244, Rweak 0.110, Alpha 0.212
REM <I/s>   1.971 for    6 systematic absences,  Orientation as input
REM Formula found by SHELXT:  C13 N7 O2

CELL  0.71073   7.0200   9.2700  11.5600   90.000   97.670   90.000
ZERR   16.000   0.0014   0.0019   0.0023    0.000    0.030    0.000
LATT -1
SYMM -X, 1/2+Y, -Z
SFAC C H N O
UNIT 16 16 16 16
L.S. 10
BOND
LIST 6
FMAP 2
PLAN 20
N001  3  0.50758  0.62158  0.76378 11.00000  0.03444   7.40
N002  3  0.84709  0.41034  0.18744 11.00000  0.04652   7.30
N003  3  1.03343  0.49878  0.36054 11.00000  0.02593   7.20
N004  3  0.80129  0.29425  0.09238 11.00000  0.02068   7.12
N005  3  0.38526  0.42857  0.88369 11.00000  0.03017   6.99
O006  4  0.60822  0.75011  0.55684 11.00000  0.02828   6.84
N007  3  0.84528  0.14843 -0.06804 11.00000  0.03508   6.83
N008  3  0.18590  0.52183  0.70893 11.00000  0.03080   6.54
C009  1  0.92412  0.25163  0.02600 11.00000  0.02625   6.35
C00A  1  0.43376  0.77404  0.53075 11.00000  0.01177   6.25
C00B  1  0.20342  0.43170  0.80976 11.00000  0.02043   6.24
C00C  1  0.41206  0.32983  0.97874 11.00000  0.01478   6.16
C00D  1  0.92001  0.67812  0.46653 11.00000  0.01200   5.90
O00E  4  1.09232  0.23615  0.06042 11.00000  0.03062   5.67
C00F  1  0.30078  0.69397  0.58680 11.00000  0.01617   5.44
C00G  1  0.71771  0.58895  0.29916 11.00000  0.02462   5.22
C00H  1  0.69508  0.49255  0.20950 11.00000  0.02940   4.67
C00I  1  0.87895  0.58780  0.37627 11.00000  0.02375   4.64
C00J  1  0.52858  0.52652  0.86051 11.00000  0.02499   4.64
C00K  1  0.33280  0.61877  0.68883 11.00000  0.00821   4.63
C00L  1  0.33981  0.85157  0.42221 11.00000  0.01932   4.33
C00M  1  1.01135  0.40513  0.26635 11.00000  0.01432   3.70
HKLF 4
END
