TITL SP14R08_expF_1_5_expS_1_5_SP14R08_c.res in P2(1)
REM Old TITL SP14R08 in P2(1)/n
REM SHELXT solution in P2(1): R1 0.840, Rweak 0.276, Alpha 0.109
REM <I/s>  23.153 for    6 systematic absences,  Orientation as input
REM Formula found by SHELXT:  C35 N11 O4

CELL  0.71073   7.0200   9.2700  11.5600   90.000   97.670   90.000
ZERR   16.000   0.0014   0.0019   0.0023    0.000    0.030    0.000
LATT -1
SYMM -X, 1/2+Y, -Z
SFAC C H N O
UNIT 16 16 16 16
L.S. 10
BOND
LIST 6
FMAP 2
PLAN 20
O001  4  0.46509  0.78184  0.00586 11.00000  0.10899   8.80
N002  3  0.48002  0.20726  0.33883 11.00000  0.12947   8.58
N003  3 -0.01804  0.28601 -0.01081 11.00000  0.11122   8.52
N004  3  0.69639  0.72580  0.06365 11.00000  0.09099   7.85
O005  4 -0.22692  0.28705 -0.05043 11.00000  0.09999   7.82
O006  4  0.74573  0.27351  0.70379 11.00000  0.12535   7.79
N007  3  0.28264  0.03585  0.15934 11.00000  0.30389   7.44
C008  1  0.79180  0.62562  0.30316 11.00000  0.08512   7.33
N009  3  0.54907  0.21078  0.52462 11.00000  0.08339   7.27
N00A  3  0.50723  0.12989  0.40893 11.00000  0.09238   7.01
N00B  3  0.75346  0.90401  0.11692 11.00000  0.11348   7.00
N00C  3  0.59581  0.65651  0.24852 11.00000  0.09576   7.00
C00D  1 -0.03229  0.35422 -0.09710 11.00000  0.08548   6.65
C00E  1  0.69509  0.06701  0.56302 11.00000  0.06789   6.40
C00F  1  0.92619  0.60933  0.25305 11.00000  0.08998   6.16
C00G  1  0.96745  0.27600  0.45429 11.00000  0.08452   6.12
C00H  1  0.69919  0.82181  0.41134 11.00000  0.10280   5.99
C00I  1  0.82196  0.55225  0.67212 11.00000  0.09816   5.99
C00J  1  0.46526  0.88276  0.38985 11.00000  0.11808   5.97
C00K  1  0.82056  0.91465 -0.07531 11.00000  0.08123   5.46
C00L  1  0.48412  0.18168  0.40281 11.00000  0.08616   5.25
C00M  1  0.72847  0.14944  0.65683 11.00000  0.07829   5.16
C00N  1  0.76421  0.62780  0.43151 11.00000  0.09617   4.95
C00O  1  0.68955  0.82054 -0.04661 11.00000  0.16682   4.76
C00P  1  0.49250  0.71953 -0.01903 11.00000  0.07906   4.73
C00Q  1  1.11994  0.35649  0.38978 11.00000  0.08944   4.64
C00R  1  0.26767  0.04670  0.16562 11.00000  0.25555   4.24
C00S  1  0.91980  0.37241  0.71602 11.00000  0.19201   4.17
C00T  1  0.99981  0.20217  0.50065 11.00000  0.09094   4.14
C00U  1  0.74726  0.65920  0.57114 11.00000  0.08107   4.08
C00V  1 -0.00811  0.11169  0.10216 11.00000  0.12688   4.00
N00W  3  0.62020  0.51814  0.10000 11.00000  0.12738   3.97
C00X  1  0.22036  0.08024  0.06884 11.00000  0.09536   3.89
N00Y  3  0.56674  0.16189  0.23630 11.00000  0.08109   3.85
C00Z  1  0.40617  0.13713  0.20263 11.00000  0.09344   3.75
C010  1  0.59526  0.44928  0.38252 11.00000  0.12927   3.75
C011  1  0.68376  0.83373  0.29064 11.00000  0.08794   3.68
C012  1  0.91705  0.13424  0.38984 11.00000  0.10621   3.66
O013  4  1.03830  0.69749  0.19232 11.00000  0.11193   3.65
C014  1  0.42869  0.96415  0.29633 11.00000  0.09979   3.64
N015  3  0.94043  0.36024  0.16174 11.00000  0.09184   3.48
C016  1  0.78910  0.70201  0.06448 11.00000  0.13525   3.34
C017  1 -0.07003  0.21425 -0.02097 11.00000  0.08938   3.29
C018  1  0.78869  0.30592  0.49542 11.00000  0.10852   3.27
C019  1  0.73413  0.66906  0.06744 11.00000  0.13434   3.19
C01A  1  0.70521  0.11753  0.34334 11.00000  0.10721   3.18
C01B  1  1.07887  0.43120  0.27665 11.00000  0.11522   3.17
C01C  1  1.23173  0.49736  0.24775 11.00000  0.08986   3.16
C01D  1  0.78634  0.46984  0.19986 11.00000  0.08164   3.08
C01E  1  0.55829  0.87399  0.32747 11.00000  0.12055   3.05
HKLF 4
END
