TITL SP14R08_expF_0_5_expS_1_2_SP14R08_b.res in P2(1)
REM Old TITL SP14R08 in P2(1)/n
REM SHELXT solution in P2(1): R1 0.280, Rweak 0.273, Alpha 0.263
REM <I/s>   1.508 for    6 systematic absences,  Orientation as input
REM Formula found by SHELXT:  C11 O9

CELL  0.71073   7.0200   9.2700  11.5600   90.000   97.670   90.000
ZERR   16.000   0.0014   0.0019   0.0023    0.000    0.030    0.000
LATT -1
SYMM -X, 1/2+Y, -Z
SFAC C H N O
UNIT 16 16 16 16
L.S. 10
BOND
LIST 6
FMAP 2
PLAN 20
O001  4  0.69373  0.25371  0.41169 11.00000  0.02362   8.49
O002  4  0.79422  0.54759  0.19993 11.00000  0.01260   8.11
C003  1  0.10687  0.37344  0.61969 11.00000  0.00051   8.10
O004  4  0.38061  0.20166  0.43316 11.00000  0.01554   8.07
C005  1  0.57027  0.19289  0.47595 11.00000  0.00010   8.06
O006  4  0.16008  0.80711  1.07104 11.00000  0.00010   8.00
O007  4  0.81179  0.44422  0.29119 11.00000  0.00010   7.95
O008  4 -0.02920  0.48866  0.63890 11.00000  0.02318   7.87
C009  1  0.66748  0.35451  0.30714 11.00000  0.00043   6.64
O00A  4  0.08034  0.29592  0.52695 11.00000  0.03346   6.06
O00B  4  0.58513  0.64069  0.02689 11.00000  0.01087   5.76
C00C  1  0.49641  0.35494  0.23465 11.00000  0.00974   5.74
C00D  1  0.15117  0.57114  0.81683 11.00000  0.01313   5.66
C00E  1 -0.01547  0.56997  0.73441 11.00000  0.00418   5.46
O00F  4 -0.08846  0.71702  0.94433 11.00000  0.00222   5.36
C00G  1  0.20029  0.65274  0.90899 11.00000  0.00010   5.08
C00H  1  0.46700  0.46535  0.13530 11.00000  0.00010   4.88
C00I  1  0.06833  0.72236  0.96509 11.00000  0.00599   4.58
C00J  1  0.63113  0.53410  0.12125 11.00000  0.00843   3.59
C00K  1  0.29101  0.39775  0.69269 11.00000  0.02566   3.37
HKLF 4
END
