TITL SP14R08_expF_1_4_expS_0_7_SP14R08_b.res in Pn
REM Old TITL SP14R08 in P2(1)/n
REM SHELXT solution in Pn: R1 0.229, Rweak 0.057, Alpha 0.049
REM <I/s>   1.323 for  101 systematic absences,  Orientation as input
REM Formula found by SHELXT:  C17 N O4

CELL  0.71073   7.0200   9.2700  11.5600   90.000   97.670   90.000
ZERR   16.000   0.0014   0.0019   0.0023    0.000    0.030    0.000
LATT -1
SYMM 1/2+X, -Y, 1/2+Z
SFAC C H N O
UNIT 16 16 16 16
L.S. 10
BOND
LIST 6
FMAP 2
PLAN 20
N001  3  0.42470  0.10471  0.56586 11.00000  0.03791   7.83
O002  4  0.22647  0.01156  0.40064 11.00000  0.03216   7.68
O003  4  0.33728 -0.17126  0.28146 11.00000  0.01156   7.45
C004  1  0.44753  0.20258  0.66232 11.00000  0.01955   6.31
C005  1  0.25348  0.10997  0.49029 11.00000  0.03018   6.19
O006  4  0.85209  0.23747  0.31279 11.00000  0.03625   6.14
C007  1  0.44664  0.48978  0.46274 11.00000  0.03226   5.86
C008  1  0.68683  0.22782  0.28579 11.00000  0.02348   5.75
C009  1  0.63467  0.58225  0.63395 11.00000  0.02514   5.75
C00A  1  0.32848  0.25340  0.72668 11.00000  0.02833   5.63
C00B  1  0.41401  0.35177  0.82314 11.00000  0.02963   5.41
C00C  1  0.47125  0.57423  0.56371 11.00000  0.04165   5.32
O00D  4  0.14791  0.24835  0.69537 11.00000  0.04132   5.24
C00E  1  0.54887  0.30274  0.34164 11.00000  0.02535   5.11
C00F  1  0.54739 -0.08356  0.45284 11.00000  0.02118   4.97
C00G  1  0.37077 -0.07875  0.37375 11.00000  0.02941   4.78
C00H  1  0.59669  0.14613  0.17686 11.00000  0.03214   4.45
C00I  1  0.56598  0.01865  0.54451 11.00000  0.02856   4.09
C00J  1  0.76926  0.39748  0.51898 11.00000  0.02554   3.94
C00K  1  0.63649  0.69127  0.72453 11.00000  0.07984   3.74
C00L  1  0.79297  0.48486  0.62605 11.00000  0.04719   3.17
C00M  1  0.59774  0.38977  0.44315 11.00000  0.02697   3.00
HKLF 4
END
