TITL SP14R08_expF_1_5_expS_0_7_SP14R08_c.res in P2(1)
REM Old TITL SP14R08 in P2(1)/n
REM SHELXT solution in P2(1): R1 0.244, Rweak 0.046, Alpha 0.099
REM <I/s>   2.252 for    6 systematic absences,  Orientation as input
REM Formula found by SHELXT:  C15 N4 O3

CELL  0.71073   7.0200   9.2700  11.5600   90.000   97.670   90.000
ZERR   16.000   0.0014   0.0019   0.0023    0.000    0.030    0.000
LATT -1
SYMM -X, 1/2+Y, -Z
SFAC C H N O
UNIT 16 16 16 16
L.S. 10
BOND
LIST 6
FMAP 2
PLAN 20
N001  3  0.30683  0.69584  0.58848 11.00000  0.03114   7.49
O002  4  0.91109  0.66463  0.47077 11.00000  0.04487   7.45
O003  4  1.10172  0.22894  0.06040 11.00000  0.03662   7.13
N004  3  0.70609  0.56593  0.30507 11.00000  0.02953   6.98
N005  3  1.03225  0.47698  0.36076 11.00000  0.05297   6.98
N006  3  0.83428  0.38151  0.18977 11.00000  0.02261   6.60
C007  1  0.87867  0.56885  0.37986 11.00000  0.03414   6.48
C008  1  0.93365  0.23079  0.03370 11.00000  0.02431   6.43
C009  1  0.33920  0.85157  0.42662 11.00000  0.03407   6.36
C00A  1  0.68890  0.46596  0.21202 11.00000  0.03332   6.24
C00B  1  0.51192  0.58920  0.76162 11.00000  0.02723   5.74
C00C  1  1.00722  0.37683  0.26655 11.00000  0.02780   5.64
C00D  1  0.42480  0.75394  0.52576 11.00000  0.03070   5.63
C00E  1  0.53062  0.50494  0.86006 11.00000  0.02337   5.37
C00F  1  0.34364  0.59129  0.68397 11.00000  0.05135   5.28
C00G  1  0.38547  0.40806  0.88006 11.00000  0.02657   5.06
C00H  1  0.41523  0.31667  0.97310 11.00000  0.02503   5.05
O00I  4  0.60181  0.73835  0.55688 11.00000  0.05123   5.04
C00J  1  0.19233  0.49547  0.70680 11.00000  0.02903   4.91
C00K  1  0.79672  0.29890  0.09092 11.00000  0.02394   4.85
C00L  1  0.22175  0.40284  0.80461 11.00000  0.05250   4.66
C00M  1  0.84614  0.14843 -0.07302 11.00000  0.02912   4.38
HKLF 4
END
