TITL SP14R08_expF_0_8_expS_1_1_SP14R08_c.res in P2(1)
REM Old TITL SP14R08 in P2(1)/n
REM SHELXT solution in P2(1): R1 0.243, Rweak 0.095, Alpha 0.168
REM <I/s>   2.065 for    6 systematic absences,  Orientation as input
REM Formula found by SHELXT:  C14 N3 O5

CELL  0.71073   7.0200   9.2700  11.5600   90.000   97.670   90.000
ZERR   16.000   0.0014   0.0019   0.0023    0.000    0.030    0.000
LATT -1
SYMM -X, 1/2+Y, -Z
SFAC C H N O
UNIT 16 16 16 16
L.S. 10
BOND
LIST 6
FMAP 2
PLAN 20
O001  4  0.30511  0.69209  0.58706 11.00000  0.03147   9.35
O002  4  1.03081  0.48480  0.36198 11.00000  0.05605   8.16
O003  4  0.60723  0.74071  0.55975 11.00000  0.02722   7.18
N004  3  0.41718  0.32471  0.97615 11.00000  0.02323   6.82
N005  3  0.83647  0.38552  0.19024 11.00000  0.01778   6.78
C006  1  0.42660  0.75792  0.52628 11.00000  0.02087   6.75
C007  1  0.38955  0.41201  0.88102 11.00000  0.01638   6.70
N008  3  0.19054  0.49358  0.70305 11.00000  0.02510   6.60
C009  1  0.22585  0.41557  0.80604 11.00000  0.04175   6.37
C00A  1  1.00617  0.37679  0.27024 11.00000  0.01854   6.13
C00B  1  0.93056  0.23294  0.03280 11.00000  0.01905   5.98
O00C  4  0.91274  0.67381  0.46835 11.00000  0.03334   5.98
C00D  1  0.84844  0.14817 -0.07261 11.00000  0.01823   5.77
C00E  1  0.33699  0.85183  0.42626 11.00000  0.02652   5.77
O00F  4  1.09330  0.22584  0.05845 11.00000  0.03286   5.71
C00G  1  0.34163  0.59876  0.68440 11.00000  0.03948   5.65
C00H  1  0.87443  0.57302  0.37780 11.00000  0.02539   5.63
C00I  1  0.51222  0.59093  0.75918 11.00000  0.01618   5.51
C00J  1  0.70144  0.57349  0.30344 11.00000  0.01063   5.51
C00K  1  0.69025  0.46232  0.21599 11.00000  0.02168   5.16
C00L  1  0.53243  0.50971  0.86028 11.00000  0.01212   4.41
C00M  1  0.79681  0.29399  0.09191 11.00000  0.01883   4.29
HKLF 4
END
