TITL SP14R08_expF_1_5_expS_1_4_SP14R08_a.res in P2(1)/n
REM Old TITL SP14R08 in P2(1)/n
REM SHELXT solution in P2(1)/n: R1 0.602, Rweak 0.067, Alpha 0.052
REM <I/s>   2.701 for  107 systematic absences,  Orientation as input
REM Formula found by SHELXT:  C7 N4 O

CELL  0.71073   7.0200   9.2700  11.5600   90.000   97.670   90.000
ZERR   16.000   0.0014   0.0019   0.0023    0.000    0.030    0.000
LATT  1
SYMM 1/2-X, 1/2+Y, 1/2-Z
SFAC C H N O
UNIT 16 16 16 16
L.S. 10
BOND
LIST 6
FMAP 2
PLAN 20
N001  3  0.66899  0.92458  0.72366 11.00000  0.07052   7.11
N002  3  0.58946  0.64881  0.43434 11.00000  0.07743   6.85
N003  3  0.54831  0.55193  0.33860 11.00000  0.06750   6.76
C004  1  0.63228  0.83476  0.63184 11.00000  0.06954   6.73
N005  3  0.77819  0.74027  0.60743 11.00000  0.07925   6.65
C006  1  0.43922  0.73646  0.45747 11.00000  0.06716   6.17
C007  1  0.46117  0.83173  0.55812 11.00000  0.07913   6.08
C008  1  0.75778  0.64568  0.51609 11.00000  0.06919   5.93
C009  1  0.67713  0.48732  0.28303 11.00000  0.07579   5.84
O00A  4  0.85098  0.49276  0.30458 11.00000  0.08370   5.74
C00B  1  0.59258  0.39474  0.17825 11.00000  0.08000   4.55
C00C  1  0.92490  0.47094  0.48162 11.00000  0.19044   3.07
HKLF 4
END
