TITL SP14R08_expF_0_8_expS_0_7_SP14R08_a.res in Pn
REM Old TITL SP14R08 in P2(1)/n
REM SHELXT solution in Pn: R1 0.269, Rweak 0.284, Alpha 0.229
REM <I/s>   1.055 for   97 systematic absences,  Orientation as input
REM Formula found by SHELXT:  C8 N4 O10

CELL  0.71073   7.0200   9.2700  11.5600   90.000   97.670   90.000
ZERR   16.000   0.0014   0.0019   0.0023    0.000    0.030    0.000
LATT -1
SYMM 1/2+X, -Y, 1/2+Z
SFAC C H N O
UNIT 16 16 16 16
L.S. 10
BOND
LIST 6
FMAP 2
PLAN 20
N001  3  0.42289  0.25961  0.53731 11.00000  0.00010  13.84
N002  3  0.31693  0.10646  0.69599 11.00000  0.00347  12.64
O003  4  0.30444  0.20334  0.60922 11.00000  0.02106  11.72
N004  3  0.61848  0.42504  0.12360 11.00000  0.00010  10.44
O005  4  0.41440 -0.18221  0.97826 11.00000  0.00010  10.10
O006  4  0.65829  0.84673  0.58974 11.00000  0.00248   9.96
O007  4  0.51254  0.03007  0.86655 11.00000  0.01238   9.65
O008  4  0.20440 -0.08574  0.80418 11.00000  0.02636   9.05
O009  4  0.18591  0.01207  0.71928 11.00000  0.01135   9.01
O00A  4  0.52040  0.11370  0.76991 11.00000  0.01959   8.71
O00B  4  0.59912  0.26451  0.56940 11.00000  0.00741   8.46
O00C  4  0.39413  0.74674  0.44650 11.00000  0.01160   8.06
N00D  3  0.45381  0.49826  0.14260 11.00000  0.01239   6.97
C00E  1  0.34792  0.36401  0.45145 11.00000  0.00689   5.87
C00F  1  0.49549  0.60508  0.23455 11.00000  0.00096   5.39
C00G  1  0.81409  0.52275  0.30027 11.00000  0.02053   5.20
C00H  1  0.38313 -0.08966  0.88164 11.00000  0.01516   4.79
C00I  1  0.77874  0.42955  0.19287 11.00000  0.01156   4.64
C00J  1  0.63684  0.61303  0.32127 11.00000  0.00010   4.40
C00K  1  0.59243  0.33610  0.02174 11.00000  0.03096   4.24
O00L  4  0.70055  0.69886  0.42940 11.00000  0.01305   3.79
C00M  1  0.53683  0.31257  0.33165 11.00000  0.12256   3.09
HKLF 4
END
