TITL SP14R08_expF_1_5_expS_0_7_SP14R08_a.res in P2(1)/n
REM Old TITL SP14R08 in P2(1)/n
REM SHELXT solution in P2(1)/n: R1 0.270, Rweak 0.047, Alpha 0.089
REM <I/s>   1.445 for  107 systematic absences,  Orientation as input
REM Formula found by SHELXT:  C10 O

CELL  0.71073   7.0200   9.2700  11.5600   90.000   97.670   90.000
ZERR   16.000   0.0014   0.0019   0.0023    0.000    0.030    0.000
LATT  1
SYMM 1/2-X, 1/2+Y, 1/2-Z
SFAC C H N O
UNIT 16 16 16 16
L.S. 10
BOND
LIST 6
FMAP 2
PLAN 20
C001  1  0.44932  0.55105  0.66068 11.00000  0.02370   6.39
C002  1  0.33642  0.92477  0.27841 11.00000  0.02296   6.24
C003  1  0.32074  0.48737  0.72124 11.00000  0.02648   6.20
O004  4  0.14906  0.49449  0.69164 11.00000  0.04379   6.18
C005  1  0.21792  0.73677  0.39047 11.00000  0.02907   6.11
C006  1  0.41272  0.64358  0.56205 11.00000  0.02799   5.95
C007  1  0.36715  0.82932  0.36994 11.00000  0.02894   5.85
C008  1  0.53739  0.82964  0.44460 11.00000  0.03265   5.75
C009  1  0.24119  0.64304  0.48562 11.00000  0.02835   5.74
C00A  1  0.56137  0.73593  0.54075 11.00000  0.03109   5.54
C00B  1  0.40845  0.39914  0.82343 11.00000  0.03045   5.37
HKLF 4
END
