TITL SP14R08_expF_1_2_expS_0_9_SP14R08_b.res in Pn
REM Old TITL SP14R08 in P2(1)/n
REM SHELXT solution in Pn: R1 0.239, Rweak 0.032, Alpha 0.032
REM <I/s>   1.428 for  101 systematic absences,  Orientation as input
REM Formula found by SHELXT:  C13 N2 O7

CELL  0.71073   7.0200   9.2700  11.5600   90.000   97.670   90.000
ZERR   16.000   0.0014   0.0019   0.0023    0.000    0.030    0.000
LATT -1
SYMM 1/2+X, -Y, 1/2+Z
SFAC C H N O
UNIT 16 16 16 16
L.S. 10
BOND
LIST 6
FMAP 2
PLAN 20
O001  4  0.85085  0.26700  0.30453 11.00000  0.05054   8.82
O002  4  0.45545  0.30487  0.66033 11.00000  0.04180   8.75
O003  4  0.20975  0.49549  0.38773 11.00000  0.05227   8.22
O004  4  0.24641  0.39566  0.48251 11.00000  0.02525   8.08
C005  1  0.67870  0.26590  0.28505 11.00000  0.02779   7.76
O006  4  0.46659 -0.08029  0.55525 11.00000  0.06025   7.52
O007  4  0.34083  0.68050  0.27906 11.00000  0.04134   7.46
N008  3  0.59018  0.10635  0.44036 11.00000  0.03093   7.22
C009  1  0.36200  0.58574  0.36577 11.00000  0.02845   7.04
N00A  3  0.43452  0.01475  0.45373 11.00000  0.03799   6.82
C00B  1  0.66803 -0.16838  0.72328 11.00000  0.01873   6.00
C00C  1  0.40810  0.14586  0.82310 11.00000  0.03447   5.80
C00D  1  0.59200  0.34863  0.17690 11.00000  0.03055   5.68
C00E  1  0.41618  0.39257  0.56548 11.00000  0.03040   5.60
C00F  1  0.55316  0.48820  0.53610 11.00000  0.02780   5.35
C00G  1  0.54263  0.57573  0.44461 11.00000  0.02855   5.32
C00H  1  0.62721 -0.07657  0.62728 11.00000  0.02571   5.24
C00I  1  0.32096  0.24103  0.72491 11.00000  0.02381   5.10
C00J  1  0.77601  0.02036  0.60664 11.00000  0.02262   4.91
C00K  1  0.55869  0.20167  0.34002 11.00000  0.02219   4.63
O00L  4  0.14915  0.25129  0.68789 11.00000  0.03036   4.43
C00M  1  0.77663  0.11305  0.50940 11.00000  0.06038   4.18
HKLF 4
END
