TITL SP14R08_expF_0_9_expS_0_5_SP14R08_a.res in Pn
REM Old TITL SP14R08 in P2(1)/n
REM SHELXT solution in Pn: R1 0.288, Rweak 0.431, Alpha 0.203
REM <I/s>   1.001 for   97 systematic absences,  Orientation as input
REM Formula found by SHELXT:  C10 N3 O6

CELL  0.71073   7.0200   9.2700  11.5600   90.000   97.670   90.000
ZERR   16.000   0.0014   0.0019   0.0023    0.000    0.030    0.000
LATT -1
SYMM 1/2+X, -Y, 1/2+Z
SFAC C H N O
UNIT 16 16 16 16
L.S. 10
BOND
LIST 6
FMAP 2
PLAN 20
N001  3  0.40247  0.60758  0.55029 11.00000  0.00010  12.68
O002  4  0.64416  1.08315  0.62277 11.00000  0.01063   9.05
O003  4  0.20905  0.51534  0.38090 11.00000  0.00010   8.99
O004  4  0.43020  0.69957  0.64545 11.00000  0.00175   7.90
O005  4  0.85157  0.73737  0.29996 11.00000  0.00139   7.73
C006  1  0.30922  0.75987  0.70936 11.00000  0.00123   6.94
N007  3  0.53839  0.42180  0.43278 11.00000  0.00010   6.72
C008  1  0.67524  0.72737  0.27640 11.00000  0.00010   6.02
C009  1  0.41172  0.84651  0.82259 11.00000  0.00010   5.87
C00A  1  0.65138  1.16162  0.72019 11.00000  0.00010   5.77
C00B  1  0.59270  0.64521  0.17741 11.00000  0.00010   5.73
O00C  4  0.14843  0.75332  0.67204 11.00000  0.04249   5.47
C00D  1  0.52343  0.53303  0.52271 11.00000  0.00335   5.29
C00E  1  0.73764  0.89118  0.50457 11.00000  0.02537   5.15
C00F  1  0.32504  0.30625  0.27640 11.00000  0.00010   5.01
O00G  4  0.51322  0.79659  0.32913 11.00000  0.04236   4.34
N00H  3  0.42440  0.99782  0.44085 11.00000  0.00254   4.21
C00I  1  0.23368  0.60564  0.46895 11.00000  0.00873   4.16
C00J  1  0.39012  0.42771  0.35066 11.00000  0.02626   3.69
HKLF 4
END
