TITL SP14R08_expF_1_2_expS_0_6_SP14R08_a.res in Pn
REM Old TITL SP14R08 in P2(1)/n
REM SHELXT solution in Pn: R1 0.253, Rweak 0.167, Alpha 0.128
REM <I/s>   1.108 for  101 systematic absences,  Orientation as input
REM Formula found by SHELXT:  C11 N2 O7

CELL  0.71073   7.0200   9.2700  11.5600   90.000   97.670   90.000
ZERR   16.000   0.0014   0.0019   0.0023    0.000    0.030    0.000
LATT -1
SYMM 1/2+X, -Y, 1/2+Z
SFAC C H N O
UNIT 16 16 16 16
L.S. 10
BOND
LIST 6
FMAP 2
PLAN 20
C001  1  0.32312  0.76432  0.71144 11.00000  0.00010   9.30
O002  4  0.23967  0.60627  0.48214 11.00000  0.00517   8.99
O003  4  0.66761  1.17192  0.71579 11.00000  0.00224   8.96
O004  4  0.15032  0.76197  0.68270 11.00000  0.01275   8.68
O005  4  0.77679  0.98689  0.60201 11.00000  0.02441   7.96
N006  3  0.62804  1.07463  0.63162 11.00000  0.01513   7.76
O007  4  0.45632  1.08110  0.54565 11.00000  0.03353   7.54
O008  4  0.55130  0.79922  0.33108 11.00000  0.02419   7.26
N009  3  0.42664  0.98051  0.45273 11.00000  0.02056   6.99
C00A  1  0.41557  0.60375  0.55993 11.00000  0.01427   6.34
C00B  1  0.44935  0.69492  0.65191 11.00000  0.01009   6.09
C00C  1  0.41611  0.84969  0.82290 11.00000  0.01649   5.86
C00D  1  0.59272  0.88728  0.43654 11.00000  0.01796   5.83
C00E  1  0.60266  0.65132  0.17710 11.00000  0.01346   5.68
C00F  1  0.55096  0.50661  0.53603 11.00000  0.01748   4.84
C00G  1  0.36409  0.41588  0.37054 11.00000  0.01666   4.54
C00H  1  0.84968  0.75600  0.30027 11.00000  0.01307   4.49
C00I  1  0.21111  0.51356  0.37600 11.00000  0.02100   4.47
C00J  1  0.53662  0.42005  0.43603 11.00000  0.01904   4.15
O00K  4  0.38258  0.30862  0.26645 11.00000  0.15101   3.35
HKLF 4
END
