TITL SP14R08_expF_0_7_expS_0_7_SP14R08_a.res in Pn
REM Old TITL SP14R08 in P2(1)/n
REM SHELXT solution in Pn: R1 0.286, Rweak 0.399, Alpha 0.180
REM <I/s>   1.015 for   97 systematic absences,  Orientation as input
REM Formula found by SHELXT:  C9 N5 O4

CELL  0.71073   7.0200   9.2700  11.5600   90.000   97.670   90.000
ZERR   16.000   0.0014   0.0019   0.0023    0.000    0.030    0.000
LATT -1
SYMM 1/2+X, -Y, 1/2+Z
SFAC C H N O
UNIT 16 16 16 16
L.S. 10
BOND
LIST 6
FMAP 2
PLAN 20
O001  4  0.35085  0.76041  0.31213 11.00000  0.00010  10.37
O002  4  0.73328  0.89820  0.47939 11.00000  0.00200   9.31
O003  4  0.83918  1.17721  0.28082 11.00000  0.00736   9.00
N004  3  0.07318  0.69905  0.34727 11.00000  0.00830   7.37
N005  3 -0.05618  0.50568  0.46758 11.00000  0.02952   7.25
N006  3  0.08690  0.61248  0.44300 11.00000  0.00010   7.16
N007  3  0.89583  0.65866  0.82022 11.00000  0.00010   7.00
N008  3 -0.04905  0.41860  0.56349 11.00000  0.00010   6.67
C009  1  0.86649  1.06633  0.37840 11.00000  0.00630   6.32
C00A  1  0.17678  0.76969  0.27650 11.00000  0.01114   6.12
C00B  1  0.26651  0.51592  0.60858 11.00000  0.00010   5.42
C00C  1  0.95942  0.79764  0.66538 11.00000  0.00440   5.37
C00D  1  0.81863  0.73521  0.71667 11.00000  0.00010   5.28
C00E  1  0.69967  0.99264  0.38940 11.00000  0.02522   4.89
C00F  1  0.07680  0.86135  0.17978 11.00000  0.00807   4.38
C00G  1  0.12573  0.41287  0.64284 11.00000  0.00416   3.99
C00H  1  1.05618  0.97892  0.54465 11.00000  0.00010   3.97
O00I  4  0.18774  0.32083  0.72758 11.00000  0.03964   3.39
HKLF 4
END
