TITL SP14R08_expF_0_8_expS_0_8_SP14R08_b.res in P2(1)
REM Old TITL SP14R08 in P2(1)/n
REM SHELXT solution in P2(1): R1 0.261, Rweak 0.241, Alpha 0.282
REM <I/s>   1.577 for    6 systematic absences,  Orientation as input
REM Formula found by SHELXT:  C14 N5 O3

CELL  0.71073   7.0200   9.2700  11.5600   90.000   97.670   90.000
ZERR   16.000   0.0014   0.0019   0.0023    0.000    0.030    0.000
LATT -1
SYMM -X, 1/2+Y, -Z
SFAC C H N O
UNIT 16 16 16 16
L.S. 10
BOND
LIST 6
FMAP 2
PLAN 20
O001  4 -0.09447  0.76435  0.94494 11.00000  0.01290   8.25
C002  1  0.06710  0.78708  0.96931 11.00000  0.01552   8.12
O003  4  0.15679  0.85660  1.07521 11.00000  0.00445   7.62
N004  3  0.10377  0.43121  0.61523 11.00000  0.03295   7.38
N005  3  0.81156  0.50990  0.29366 11.00000  0.00447   7.14
N006  3  0.79074  0.60405  0.20160 11.00000  0.02142   7.10
N007  3  0.19970  0.70690  0.91359 11.00000  0.01249   6.73
N008  3  0.46888  0.48951  0.13771 11.00000  0.00092   6.54
C009  1  0.49437  0.40720  0.23428 11.00000  0.02378   6.22
C00A  1  0.58334  0.67494  0.02643 11.00000  0.00262   6.10
C00B  1  0.14907  0.61747  0.81147 11.00000  0.00946   6.06
C00C  1  0.69665  0.30569  0.40786 11.00000  0.00864   5.76
C00D  1  0.67482  0.40311  0.31004 11.00000  0.01497   5.68
C00E  1  0.08281  0.32483  0.52975 11.00000  0.00893   5.58
C00F  1 -0.00925  0.61745  0.73552 11.00000  0.00640   4.90
C00G  1 -0.03891  0.50200  0.63811 11.00000  0.04807   4.70
O00H  4  0.38849  0.25426  0.43515 11.00000  0.02618   4.68
C00I  1  0.31081  0.54992  0.78774 11.00000  0.01899   3.88
C00J  1  0.62789  0.59013  0.12278 11.00000  0.00956   3.68
C00K  1  0.29399  0.44419  0.68970 11.00000  0.01709   3.38
C00L  1  0.56990  0.25545  0.47232 11.00000  0.00404   3.28
C00M  1  0.65234  0.14340  0.55865 11.00000  0.05449   3.23
HKLF 4
END
