TITL SP14R08_expF_1_2_expS_1_5_SP14R08_b.res in Pn
REM Old TITL SP14R08 in P2(1)/n
REM SHELXT solution in Pn: R1 0.407, Rweak 0.011, Alpha 0.008
REM <I/s>   2.179 for  101 systematic absences,  Orientation as input
REM Formula found by SHELXT:  C14 N6 O2

CELL  0.71073   7.0200   9.2700  11.5600   90.000   97.670   90.000
ZERR   16.000   0.0014   0.0019   0.0023    0.000    0.030    0.000
LATT -1
SYMM 1/2+X, -Y, 1/2+Z
SFAC C H N O
UNIT 16 16 16 16
L.S. 10
BOND
LIST 6
FMAP 2
PLAN 20
N001  3  0.21786  0.01523  0.39154 11.00000  0.08076   7.05
N002  3  0.55076  0.30002  0.33997 11.00000  0.06890   6.97
N003  3  0.41209  0.10724  0.56163 11.00000  0.06879   6.92
N004  3  0.33345 -0.17327  0.27468 11.00000  0.06646   6.88
N005  3  0.53750 -0.07802  0.44071 11.00000  0.08158   6.81
N006  3  0.66253  0.67819  0.72174 11.00000  0.07204   6.70
C007  1  0.76204  0.39365  0.51275 11.00000  0.06281   6.37
C008  1  0.44570  0.48773  0.45520 11.00000  0.06887   6.19
C009  1  0.63752  0.58528  0.63024 11.00000  0.06607   6.15
C00A  1  0.45717  0.58353  0.55482 11.00000  0.07457   6.09
O00B  4  0.14718  0.25885  0.69031 11.00000  0.08331   6.08
C00C  1  0.67359  0.23681  0.28037 11.00000  0.07556   5.86
C00D  1  0.78408  0.48995  0.60704 11.00000  0.06904   5.76
C00E  1  0.31691  0.26396  0.71543 11.00000  0.06811   5.71
C00F  1  0.55713  0.01657  0.53825 11.00000  0.06616   5.60
C00G  1  0.57979  0.39388  0.43444 11.00000  0.06917   5.57
C00H  1  0.44675  0.19991  0.66024 11.00000  0.05944   5.51
O00I  4  0.85282  0.24629  0.30821 11.00000  0.07839   5.48
C00J  1  0.59326  0.15075  0.17566 11.00000  0.07432   5.37
C00K  1  0.36741 -0.07626  0.36670 11.00000  0.06818   5.28
C00L  1  0.40821  0.34964  0.82434 11.00000  0.07917   5.23
C00M  1  0.24154  0.10853  0.48419 11.00000  0.07171   5.22
HKLF 4
END
