TITL SP14R08_expF_0_8_expS_0_9_SP14R08_a.res in Pn
REM Old TITL SP14R08 in P2(1)/n
REM SHELXT solution in Pn: R1 0.246, Rweak 0.151, Alpha 0.077
REM <I/s>   1.111 for  101 systematic absences,  Orientation as input
REM Formula found by SHELXT:  C9 N3 O7

CELL  0.71073   7.0200   9.2700  11.5600   90.000   97.670   90.000
ZERR   16.000   0.0014   0.0019   0.0023    0.000    0.030    0.000
LATT -1
SYMM 1/2+X, -Y, 1/2+Z
SFAC C H N O
UNIT 16 16 16 16
L.S. 10
BOND
LIST 6
FMAP 2
PLAN 20
O001  4  0.66712  0.32722  0.71798 11.00000  0.00010  10.43
O002  4  0.46669  0.42139  0.55489 11.00000  0.00010   9.74
O003  4  0.45086  0.79977  0.65482 11.00000  0.02657   9.45
O004  4  0.14781  0.74184  0.68509 11.00000  0.01252   9.43
N005  3  0.58920  0.60670  0.43661 11.00000  0.00010   8.83
O006  4  0.79268  0.50989  0.61095 11.00000  0.04654   7.52
O007  4  0.41315  0.64078  0.82259 11.00000  0.03143   7.41
N008  3  0.23835  0.89933  0.48357 11.00000  0.01477   7.08
N009  3  0.68297  0.75865  0.27691 11.00000  0.01388   6.91
C00A  1  0.32736  0.73029  0.71657 11.00000  0.01181   6.20
C00B  1  0.56153  0.97902  0.53559 11.00000  0.02038   6.17
C00C  1  0.38594  1.08570  0.36406 11.00000  0.02404   6.13
C00D  1  0.22448  0.98418  0.38907 11.00000  0.00709   6.11
C00E  1  0.44110  0.50526  0.45522 11.00000  0.00770   5.14
C00F  1  0.75556  0.61650  0.51645 11.00000  0.02291   4.98
C00G  1  0.64548  0.42586  0.62790 11.00000  0.00840   4.86
C00H  1  0.59592  0.84332  0.17741 11.00000  0.01286   4.53
C00I  1  0.54732  0.69923  0.33198 11.00000  0.00955   4.26
O00J  4  0.85219  0.75247  0.30329 11.00000  0.03341   3.95
HKLF 4
END
