TITL SP14R08_expF_1_5_expS_0_7_SP14R08_b.res in Pn
REM Old TITL SP14R08 in P2(1)/n
REM SHELXT solution in Pn: R1 0.232, Rweak 0.043, Alpha 0.037
REM <I/s>   1.398 for  101 systematic absences,  Orientation as input
REM Formula found by SHELXT:  C12 N4 O6

CELL  0.71073   7.0200   9.2700  11.5600   90.000   97.670   90.000
ZERR   16.000   0.0014   0.0019   0.0023    0.000    0.030    0.000
LATT -1
SYMM 1/2+X, -Y, 1/2+Z
SFAC C H N O
UNIT 16 16 16 16
L.S. 10
BOND
LIST 6
FMAP 2
PLAN 20
O001  4  0.15939 -0.17291  0.71902 11.00000  0.03644   8.17
O002  4  0.64454  0.24935  0.69066 11.00000  0.02957   8.05
O003  4 -0.03465 -0.07843  0.55273 11.00000  0.02039   8.02
O004  4  0.93909  0.29979  0.65594 11.00000  0.03489   7.91
N005  3  0.17902  0.26549  0.28313 11.00000  0.02296   7.61
N006  3  0.27804  0.01196  0.60705 11.00000  0.02657   7.38
O007  4  0.91023  0.14288  0.82386 11.00000  0.05342   7.36
N008  3  0.73649  0.39682  0.48611 11.00000  0.03034   6.96
N009  3  0.08237  0.10633  0.43592 11.00000  0.02426   6.69
C00A  1 -0.06480  0.00862  0.45755 11.00000  0.02284   6.45
C00B  1  0.86295  0.58141  0.36937 11.00000  0.02520   6.43
C00C  1  0.71502  0.48506  0.38563 11.00000  0.04063   5.48
C00D  1  0.90700  0.39310  0.55967 11.00000  0.03459   5.45
C00E  1  0.04234  0.19767  0.33388 11.00000  0.02349   5.24
C00F  1  0.12823 -0.07928  0.63059 11.00000  0.02879   5.16
C00G  1  1.05540  0.47962  0.53904 11.00000  0.03472   4.98
C00H  1  0.25848  0.11216  0.51607 11.00000  0.02931   4.88
C00I  1  0.83286  0.67429  0.27405 11.00000  0.01957   4.57
C00J  1  0.82434  0.24138  0.72572 11.00000  0.02982   4.53
O00K  4  0.34702  0.26419  0.30824 11.00000  0.04883   4.33
C00L  1  0.09341  0.34577  0.17614 11.00000  0.02537   4.07
C00M  1  1.06480  0.58605  0.43530 11.00000  0.08410   3.95
HKLF 4
END
