TITL SP14R08_expF_0_8_expS_1_2_SP14R08_a.res in P2(1)/n
REM Old TITL SP14R08 in P2(1)/n
REM SHELXT solution in P2(1)/n: R1 0.270, Rweak 0.072, Alpha 0.113
REM <I/s>   1.355 for  107 systematic absences,  Orientation as input
REM Formula found by SHELXT:  C9 N O

CELL  0.71073   7.0200   9.2700  11.5600   90.000   97.670   90.000
ZERR   16.000   0.0014   0.0019   0.0023    0.000    0.030    0.000
LATT  1
SYMM 1/2-X, 1/2+Y, 1/2-Z
SFAC C H N O
UNIT 16 16 16 16
L.S. 10
BOND
LIST 6
FMAP 2
PLAN 20
N001  3  0.44907  0.55059  0.66108 11.00000  0.02787   6.62
O002  4  0.14957  0.49355  0.69140 11.00000  0.03751   6.42
C003  1  0.32098  0.48809  0.72104 11.00000  0.02121   6.19
C004  1  0.33550  0.92567  0.27815 11.00000  0.01766   6.17
C005  1  0.21779  0.73608  0.39004 11.00000  0.02385   6.13
C006  1  0.41192  0.64312  0.56158 11.00000  0.02355   5.84
C007  1  0.36705  0.82893  0.36976 11.00000  0.02459   5.82
C008  1  0.53867  0.82896  0.44454 11.00000  0.02820   5.71
C009  1  0.24105  0.64307  0.48523 11.00000  0.02361   5.69
C00A  1  0.56108  0.73553  0.54078 11.00000  0.02620   5.61
C00B  1  0.40797  0.39906  0.82326 11.00000  0.02509   5.51
HKLF 4
END
