TITL SP14R08_expF_1_3_expS_0_9_SP14R08_b.res in Pn
REM Old TITL SP14R08 in P2(1)/n
REM SHELXT solution in Pn: R1 0.248, Rweak 0.029, Alpha 0.018
REM <I/s>   1.542 for  101 systematic absences,  Orientation as input
REM Formula found by SHELXT:  C12 N7 O3

CELL  0.71073   7.0200   9.2700  11.5600   90.000   97.670   90.000
ZERR   16.000   0.0014   0.0019   0.0023    0.000    0.030    0.000
LATT -1
SYMM 1/2+X, -Y, 1/2+Z
SFAC C H N O
UNIT 16 16 16 16
L.S. 10
BOND
LIST 6
FMAP 2
PLAN 20
N001  3  0.67911  0.23968  0.27673 11.00000  0.04063   8.48
N002  3  0.58275  0.39401  0.43626 11.00000  0.02882   7.87
O003  4  0.65927  0.67482  0.72028 11.00000  0.04514   7.81
N004  3  0.46425  0.57756  0.55440 11.00000  0.03840   6.98
N005  3  0.77201  0.49252  0.60826 11.00000  0.04179   6.80
N006  3  0.41627  0.35282  0.82328 11.00000  0.05142   6.68
N007  3  0.36813 -0.08088  0.37147 11.00000  0.03878   6.66
N008  3  0.54401  0.30065  0.33869 11.00000  0.03681   6.55
O009  4  0.14877  0.26191  0.69185 11.00000  0.02731   6.47
C00A  1  0.43375  0.48737  0.45703 11.00000  0.03253   6.07
C00B  1  0.43942  0.19676  0.65801 11.00000  0.02654   6.02
C00C  1  0.76196  0.39299  0.51588 11.00000  0.03011   5.75
C00D  1  0.24312  0.10633  0.48652 11.00000  0.03618   5.67
C00E  1  0.21070  0.01789  0.38842 11.00000  0.03714   5.50
O00F  4  0.85123  0.25799  0.30957 11.00000  0.08122   5.48
C00G  1  0.55010  0.01572  0.53748 11.00000  0.03583   5.16
C00H  1  0.53847 -0.08434  0.44167 11.00000  0.05594   5.09
C00I  1  0.33604 -0.17123  0.27644 11.00000  0.02778   4.84
C00J  1  0.63452  0.58307  0.63282 11.00000  0.04060   4.68
C00K  1  0.59858  0.15214  0.17672 11.00000  0.03212   4.39
C00L  1  0.40401  0.10507  0.55822 11.00000  0.04339   4.09
C00M  1  0.32148  0.26456  0.71719 11.00000  0.03290   3.04
HKLF 4
END
