TITL SP14R08_expF_1_2_expS_1_5_SP14R08_a.res in P2(1)/n
REM Old TITL SP14R08 in P2(1)/n
REM SHELXT solution in P2(1)/n: R1 0.431, Rweak 0.016, Alpha 0.016
REM <I/s>   2.116 for  107 systematic absences,  Orientation as input
REM Formula found by SHELXT:  C9 N O

CELL  0.71073   7.0200   9.2700  11.5600   90.000   97.670   90.000
ZERR   16.000   0.0014   0.0019   0.0023    0.000    0.030    0.000
LATT  1
SYMM 1/2-X, 1/2+Y, 1/2-Z
SFAC C H N O
UNIT 16 16 16 16
L.S. 10
BOND
LIST 6
FMAP 2
PLAN 20
N001  3  0.66149  0.92725  0.72503 11.00000  0.07552   6.70
C002  1  0.55184  0.55131  0.33998 11.00000  0.06018   6.26
C003  1  0.78220  0.73889  0.60792 11.00000  0.07443   6.25
C004  1  0.45838  0.83324  0.55982 11.00000  0.07705   6.22
C005  1  0.58520  0.64517  0.43494 11.00000  0.06435   6.13
C006  1  0.44390  0.73701  0.45892 11.00000  0.07174   5.82
C007  1  0.76103  0.63966  0.51451 11.00000  0.06963   5.79
C008  1  0.67655  0.48629  0.28228 11.00000  0.07847   5.79
O009  4  0.85426  0.49738  0.30881 11.00000  0.08717   5.76
C00A  1  0.63533  0.82800  0.63100 11.00000  0.06902   5.74
C00B  1  0.58668  0.39961  0.17469 11.00000  0.08008   5.27
HKLF 4
END
