TITL SP14R08_expF_1_4_expS_0_9_SP14R08_b.res in Pn
REM Old TITL SP14R08 in P2(1)/n
REM SHELXT solution in Pn: R1 0.267, Rweak 0.024, Alpha 0.029
REM <I/s>   1.664 for  101 systematic absences,  Orientation as input
REM Formula found by SHELXT:  C14 N3 O5

CELL  0.71073   7.0200   9.2700  11.5600   90.000   97.670   90.000
ZERR   16.000   0.0014   0.0019   0.0023    0.000    0.030    0.000
LATT -1
SYMM 1/2+X, -Y, 1/2+Z
SFAC C H N O
UNIT 16 16 16 16
L.S. 10
BOND
LIST 6
FMAP 2
PLAN 20
O001  4  0.44970  0.69519  0.66467 11.00000  0.04799   8.40
O002  4  0.55698  0.51172  0.54362 11.00000  0.05631   7.94
O003  4  0.78363  0.98595  0.61105 11.00000  0.07390   7.58
N004  3  0.52946  0.42050  0.44669 11.00000  0.04066   7.16
N005  3  0.33547  0.32574  0.27992 11.00000  0.03592   7.12
N006  3  0.58680  0.89430  0.44147 11.00000  0.04709   7.06
O007  4  0.15055  0.74965  0.69766 11.00000  0.07472   6.58
C008  1  0.23404  0.60637  0.48235 11.00000  0.03388   6.42
C009  1  0.31501  0.76134  0.72121 11.00000  0.03574   6.38
C00A  1  0.62382  1.07849  0.63163 11.00000  0.03870   6.35
O00B  4  0.84945  0.74004  0.31194 11.00000  0.03534   6.29
C00C  1  0.57940  0.64552  0.17753 11.00000  0.04200   6.26
C00D  1  0.66187  1.17282  0.72488 11.00000  0.02882   6.26
C00E  1  0.66943  0.73543  0.28264 11.00000  0.03840   6.00
C00F  1  0.35891  0.41413  0.37130 11.00000  0.03878   5.90
C00G  1  0.41114  0.60616  0.56420 11.00000  0.03395   5.68
C00H  1  0.75232  0.89519  0.51083 11.00000  0.04049   5.57
C00I  1  0.21727  0.51207  0.39282 11.00000  0.02966   5.55
C00J  1  0.45288  1.08040  0.56042 11.00000  0.05756   5.53
C00K  1  0.55541  0.79796  0.34401 11.00000  0.03171   4.99
C00L  1  0.39236  0.84542  0.82247 11.00000  0.04097   4.94
C00M  1  0.44031  0.98287  0.46532 11.00000  0.04555   4.19
HKLF 4
END
