TITL SP14R08_expF_1_4_expS_1_1_SP14R08_b.res in Pn
REM Old TITL SP14R08 in P2(1)/n
REM SHELXT solution in Pn: R1 0.352, Rweak 0.015, Alpha 0.013
REM <I/s>   1.804 for  101 systematic absences,  Orientation as input
REM Formula found by SHELXT:  C14 N4 O4

CELL  0.71073   7.0200   9.2700  11.5600   90.000   97.670   90.000
ZERR   16.000   0.0014   0.0019   0.0023    0.000    0.030    0.000
LATT -1
SYMM 1/2+X, -Y, 1/2+Z
SFAC C H N O
UNIT 16 16 16 16
L.S. 10
BOND
LIST 6
FMAP 2
PLAN 20
O001  4  0.66703 -0.17165  0.72010 11.00000  0.04606   7.79
O002  4  0.78117  0.00996  0.59851 11.00000  0.06651   7.70
N003  3  0.58374  0.10463  0.43355 11.00000  0.04876   7.66
N004  3  0.45923 -0.08120  0.54922 11.00000  0.04941   7.37
O005  4  0.14692  0.23896  0.68939 11.00000  0.06038   7.05
N006  3  0.55730  0.48295  0.53804 11.00000  0.05306   6.90
C007  1  0.67990  0.25882  0.27962 11.00000  0.04538   6.73
N008  3  0.44787  0.29806  0.66098 11.00000  0.04402   6.58
C009  1  0.55050  0.19384  0.33989 11.00000  0.04062   6.42
C00A  1  0.36963  0.58608  0.36634 11.00000  0.04529   6.36
C00B  1  0.23762  0.39338  0.48249 11.00000  0.04343   6.01
C00C  1  0.34454  0.67518  0.27432 11.00000  0.04513   6.01
C00D  1  0.75635  0.10917  0.51137 11.00000  0.04409   5.81
C00E  1  0.53087  0.57886  0.43644 11.00000  0.06088   5.75
C00F  1  0.40582  0.14551  0.82378 11.00000  0.05461   5.52
C00G  1  0.21421  0.48269  0.38260 11.00000  0.04282   5.50
C00H  1  0.58920  0.34678  0.17622 11.00000  0.05163   5.48
C00I  1  0.31886  0.23459  0.71732 11.00000  0.04747   5.42
C00J  1  0.63406 -0.07810  0.62696 11.00000  0.04790   5.41
C00K  1  0.41015  0.39035  0.55877 11.00000  0.04443   5.25
O00L  4  0.85308  0.25241  0.30523 11.00000  0.05343   5.22
C00M  1  0.44272  0.01291  0.45554 11.00000  0.04994   5.21
HKLF 4
END
