TITL SP14R08_expF_1_4_expS_0_6_SP14R08_a.res in P2(1)/n
REM Old TITL SP14R08 in P2(1)/n
REM SHELXT solution in P2(1)/n: R1 0.282, Rweak 0.113, Alpha 0.162
REM <I/s>   1.247 for  107 systematic absences,  Orientation as input
REM Formula found by SHELXT:  C9 N O

CELL  0.71073   7.0200   9.2700  11.5600   90.000   97.670   90.000
ZERR   16.000   0.0014   0.0019   0.0023    0.000    0.030    0.000
LATT  1
SYMM 1/2-X, 1/2+Y, 1/2-Z
SFAC C H N O
UNIT 16 16 16 16
L.S. 10
BOND
LIST 6
FMAP 2
PLAN 20
O001  4  0.14945  0.49339  0.69115 11.00000  0.02956   6.61
N002  3  0.44856  0.55036  0.66123 11.00000  0.02214   6.51
C003  1  0.21819  0.73576  0.38942 11.00000  0.01839   6.13
C004  1  0.33453  0.92619  0.27834 11.00000  0.01352   6.09
C005  1  0.41174  0.64274  0.56174 11.00000  0.01927   6.04
C006  1  0.32055  0.48762  0.72090 11.00000  0.01653   6.00
C007  1  0.56146  0.73568  0.54080 11.00000  0.02103   5.82
C008  1  0.36739  0.82880  0.37013 11.00000  0.01971   5.81
C009  1  0.24111  0.64261  0.48502 11.00000  0.01855   5.69
C00A  1  0.53992  0.82874  0.44493 11.00000  0.02305   5.68
C00B  1  0.40775  0.39927  0.82309 11.00000  0.01859   5.58
HKLF 4
END
