TITL SP14R08_expF_1_1_expS_0_7_SP14R08_a.res in Pn
REM Old TITL SP14R08 in P2(1)/n
REM SHELXT solution in Pn: R1 0.256, Rweak 0.140, Alpha 0.076
REM <I/s>   1.145 for  101 systematic absences,  Orientation as input
REM Formula found by SHELXT:  C14 N3 O3

CELL  0.71073   7.0200   9.2700  11.5600   90.000   97.670   90.000
ZERR   16.000   0.0014   0.0019   0.0023    0.000    0.030    0.000
LATT -1
SYMM 1/2+X, -Y, 1/2+Z
SFAC C H N O
UNIT 16 16 16 16
L.S. 10
BOND
LIST 6
FMAP 2
PLAN 20
C001  1  0.67326  0.76517  0.28026 11.00000  0.00010  10.32
N002  3  0.36425  1.07828  0.37022 11.00000  0.00010  10.30
N003  3  0.57651  0.60454  0.44120 11.00000  0.02414   9.02
O004  4  0.55458  0.69674  0.34402 11.00000  0.03944   7.97
N005  3  0.65759  0.31745  0.71767 11.00000  0.02946   7.08
O006  4  0.77778  0.51107  0.61577 11.00000  0.04207   6.63
O007  4  0.84935  0.74698  0.31041 11.00000  0.02308   6.40
C008  1  0.55670  0.99067  0.54320 11.00000  0.02426   6.19
C009  1  0.40183  0.65600  0.82234 11.00000  0.01071   6.18
C00A  1  0.20789  0.98964  0.39488 11.00000  0.01904   5.99
C00B  1  0.15065  0.73186  0.69141 11.00000  0.01438   5.97
C00C  1  0.24372  0.88797  0.48772 11.00000  0.01786   5.85
C00D  1  0.45736  0.42151  0.55232 11.00000  0.02386   5.62
C00E  1  0.57616  0.86538  0.17766 11.00000  0.03954   5.50
C00F  1  0.43681  0.52273  0.46348 11.00000  0.01995   5.39
C00G  1  0.53412  1.07873  0.44547 11.00000  0.03200   5.37
C00H  1  0.76265  0.60461  0.51657 11.00000  0.02788   5.23
C00I  1  0.44916  0.79753  0.66348 11.00000  0.01463   5.05
C00J  1  0.32939  1.16623  0.27477 11.00000  0.01124   4.66
C00K  1  0.39859  0.89040  0.56410 11.00000  0.02492   3.24
HKLF 4
END
