TITL SP14R08_expF_1_1_expS_0_8_SP14R08_b.res in Pn
REM Old TITL SP14R08 in P2(1)/n
REM SHELXT solution in Pn: R1 0.225, Rweak 0.085, Alpha 0.079
REM <I/s>   1.230 for  101 systematic absences,  Orientation as input
REM Formula found by SHELXT:  C11 N3 O8

CELL  0.71073   7.0200   9.2700  11.5600   90.000   97.670   90.000
ZERR   16.000   0.0014   0.0019   0.0023    0.000    0.030    0.000
LATT -1
SYMM 1/2+X, -Y, 1/2+Z
SFAC C H N O
UNIT 16 16 16 16
L.S. 10
BOND
LIST 6
FMAP 2
PLAN 20
N001  3  0.58253  0.10335  0.43501 11.00000  0.02037  10.54
O002  4  0.14957  0.23845  0.68328 11.00000  0.02337  10.51
O003  4  0.66959 -0.17190  0.71603 11.00000  0.00224   9.51
O004  4  0.78762  0.01361  0.59992 11.00000  0.03120   9.35
O005  4  0.44989  0.29880  0.65577 11.00000  0.02607   8.21
O006  4  0.47181 -0.07953  0.55076 11.00000  0.01959   8.21
O007  4  0.56108  0.47990  0.53233 11.00000  0.03209   7.62
N008  3  0.76344  0.10795  0.50691 11.00000  0.02150   7.42
C009  1  0.37936  0.59062  0.36618 11.00000  0.02179   7.39
C00A  1  0.67795  0.25469  0.27504 11.00000  0.02203   6.79
C00B  1  0.32188  0.23131  0.71489 11.00000  0.01545   6.71
N00C  3  0.54993  0.19684  0.33488 11.00000  0.02881   6.66
C00D  1  0.59840  0.35045  0.17601 11.00000  0.02204   6.45
C00E  1  0.41357  0.14646  0.82399 11.00000  0.01996   6.32
C00F  1  0.64185 -0.07181  0.62568 11.00000  0.01540   5.10
C00G  1  0.43990  0.00556  0.44814 11.00000  0.02663   5.03
O00H  4  0.36229  0.69391  0.26889 11.00000  0.10943   4.88
C00I  1  0.22268  0.48617  0.37729 11.00000  0.02724   4.73
C00J  1  0.24377  0.39732  0.47674 11.00000  0.02733   4.70
O00K  4  0.85043  0.24792  0.30085 11.00000  0.03355   4.11
C00L  1  0.57095  0.57839  0.44419 11.00000  0.05961   3.96
C00M  1  0.40657  0.38703  0.55780 11.00000  0.02246   3.32
HKLF 4
END
