TITL SP14R08_expF_1_2_expS_0_8_SP14R08_c.res in P2(1)
REM Old TITL SP14R08 in P2(1)/n
REM SHELXT solution in P2(1): R1 0.242, Rweak 0.064, Alpha 0.171
REM <I/s>   2.267 for    6 systematic absences,  Orientation as input
REM Formula found by SHELXT:  C16 N2 O4

CELL  0.71073   7.0200   9.2700  11.5600   90.000   97.670   90.000
ZERR   16.000   0.0014   0.0019   0.0023    0.000    0.030    0.000
LATT -1
SYMM -X, 1/2+Y, -Z
SFAC C H N O
UNIT 16 16 16 16
L.S. 10
BOND
LIST 6
FMAP 2
PLAN 20
O001  4  0.20344  0.70775  0.91084 11.00000  0.03623   8.24
N002  3  0.46850  0.48819  0.13914 11.00000  0.03155   7.21
C003  1  0.16102  0.61012  0.81601 11.00000  0.01572   7.16
O004  4  0.58211  0.67009  0.02396 11.00000  0.02775   7.08
C005  1  0.07211  0.76755  0.96880 11.00000  0.01960   6.63
N006  3 -0.00729  0.61409  0.73687 11.00000  0.03579   6.51
C007  1  0.11875  0.43075  0.61955 11.00000  0.03028   6.48
O008  4 -0.10056  0.77246  0.94302 11.00000  0.04687   6.39
C009  1  0.80400  0.50011  0.29024 11.00000  0.03351   5.86
C00A  1  0.14977  0.85222  1.06953 11.00000  0.02296   5.70
O00B  4  0.39756  0.25726  0.43873 11.00000  0.02781   5.68
C00C  1  0.29473  0.43086  0.68844 11.00000  0.02340   5.57
C00D  1  0.78229  0.59026  0.20168 11.00000  0.03049   5.54
C00E  1  0.56969  0.24269  0.47140 11.00000  0.02782   5.35
C00F  1  0.31381  0.52719  0.79126 11.00000  0.02043   5.29
C00G  1  0.09033  0.31783  0.53273 11.00000  0.02160   5.17
C00H  1  0.66572  0.14778  0.57732 11.00000  0.02677   5.15
C00I  1  0.61577  0.58937  0.11952 11.00000  0.02143   5.10
C00J  1  0.66392  0.39633  0.30525 11.00000  0.03502   4.78
C00K  1  0.48907  0.40165  0.23425 11.00000  0.02219   4.62
C00L  1 -0.03288  0.51448  0.64160 11.00000  0.02965   4.39
C00M  1  0.69337  0.30891  0.40884 11.00000  0.02319   4.36
HKLF 4
END
