TITL SP14R08_expF_1_3_expS_0_8_SP14R08_c.res in P2(1)
REM Old TITL SP14R08 in P2(1)/n
REM SHELXT solution in P2(1): R1 0.247, Rweak 0.051, Alpha 0.123
REM <I/s>   1.854 for    6 systematic absences,  Orientation as input
REM Formula found by SHELXT:  C17 N3 O2

CELL  0.71073   7.0200   9.2700  11.5600   90.000   97.670   90.000
ZERR   16.000   0.0014   0.0019   0.0023    0.000    0.030    0.000
LATT -1
SYMM -X, 1/2+Y, -Z
SFAC C H N O
UNIT 16 16 16 16
L.S. 10
BOND
LIST 6
FMAP 2
PLAN 20
N001  3  0.69243  0.30189  0.40868 11.00000  0.02884   7.38
N002  3  0.28747  0.43353  0.69039 11.00000  0.03647   7.32
N003  3  0.61588  0.58373  0.12284 11.00000  0.03594   6.87
O004  4 -0.10085  0.76270  0.94107 11.00000  0.03215   6.36
C005  1  0.57136  0.24931  0.47179 11.00000  0.03063   6.23
C006  1  0.08835  0.32424  0.52910 11.00000  0.02473   6.20
C007  1 -0.03237  0.51261  0.63889 11.00000  0.03530   6.18
C008  1  0.65909  0.40591  0.31076 11.00000  0.03668   6.06
C009  1  0.48561  0.39928  0.23976 11.00000  0.02847   5.92
C00A  1  0.58389  0.67146  0.02687 11.00000  0.02252   5.92
C00B  1  0.16386  0.61695  0.81174 11.00000  0.02229   5.80
C00C  1  0.47011  0.48629  0.14110 11.00000  0.02920   5.68
C00D  1  0.81140  0.50022  0.29285 11.00000  0.03183   5.56
C00E  1  0.07103  0.77316  0.96914 11.00000  0.02572   5.49
O00F  4  0.39837  0.25247  0.44160 11.00000  0.06380   5.42
C00G  1  0.30823  0.53031  0.78909 11.00000  0.03195   5.40
C00H  1  0.16254  0.85143  1.07484 11.00000  0.02979   5.33
C00I  1 -0.00260  0.61153  0.73184 11.00000  0.02900   5.17
C00J  1  0.20570  0.69769  0.91254 11.00000  0.03203   5.13
C00K  1  0.65246  0.14857  0.57101 11.00000  0.03672   5.11
C00L  1  0.11767  0.42535  0.61501 11.00000  0.03823   4.40
C00M  1  0.78696  0.59549  0.19994 11.00000  0.04107   3.94
HKLF 4
END
