TITL SP14R08_expF_0_7_expS_1_5_SP14R08_a.res in P2(1)/n
REM Old TITL SP14R08 in P2(1)/n
REM SHELXT solution in P2(1)/n: R1 0.270, Rweak 0.046, Alpha 0.102
REM <I/s>   1.427 for  107 systematic absences,  Orientation as input
REM Formula found by SHELXT:  C9 N O

CELL  0.71073   7.0200   9.2700  11.5600   90.000   97.670   90.000
ZERR   16.000   0.0014   0.0019   0.0023    0.000    0.030    0.000
LATT  1
SYMM 1/2-X, 1/2+Y, 1/2-Z
SFAC C H N O
UNIT 16 16 16 16
L.S. 10
BOND
LIST 6
FMAP 2
PLAN 20
N001  3  0.44894  0.44889  0.66082 11.00000  0.03182   6.61
C002  1  0.33591  0.07469  0.27832 11.00000  0.02041   6.41
O003  4  0.15007  0.50626  0.69154 11.00000  0.04211   6.25
C004  1  0.32076  0.51161  0.72095 11.00000  0.02436   6.16
C005  1  0.41236  0.35681  0.56182 11.00000  0.02597   5.99
C006  1  0.21806  0.26366  0.39061 11.00000  0.02722   5.97
C007  1  0.36735  0.17095  0.36967 11.00000  0.02761   5.92
C008  1  0.24124  0.35669  0.48547 11.00000  0.02682   5.68
C009  1  0.53750  0.17079  0.44451 11.00000  0.03123   5.66
C00A  1  0.56082  0.26426  0.54066 11.00000  0.02944   5.53
C00B  1  0.40849  0.60107  0.82343 11.00000  0.02889   5.41
HKLF 4
END
