TITL SP14R08_expF_1_4_expS_1_5_SP14R08_b.res in Pn
REM Old TITL SP14R08 in P2(1)/n
REM SHELXT solution in Pn: R1 0.551, Rweak 0.006, Alpha 0.003
REM <I/s>   2.494 for  101 systematic absences,  Orientation as input
REM Formula found by SHELXT:  C31 N14 O3 Cl5

CELL  0.71073   7.0200   9.2700  11.5600   90.000   97.670   90.000
ZERR   16.000   0.0014   0.0019   0.0023    0.000    0.030    0.000
LATT -1
SYMM 1/2+X, -Y, 1/2+Z
SFAC C H N O CL
UNIT 16 16 16 16 0
L.S. 10
BOND
LIST 6
FMAP 2
PLAN 20
CL01  5  0.03466 -0.07880  0.65609 11.00000  0.11581  16.06
CL02  5  0.81083  0.39636  0.59214 11.00000  0.12337  14.40
CL03  5 -0.05414  0.19977  0.36355 11.00000  0.11826  13.72
CL04  5 -0.15907  0.01223  0.48285 11.00000  0.12241  12.67
CL05  5  0.06478 -0.17361  0.74855 11.00000  0.11731  12.66
N006  3  0.15335  0.10380  0.53904 11.00000  0.05692  11.90
N007  3  0.93370  0.57648  0.47092 11.00000  0.06250  11.90
O008  4  0.73687  0.67492  0.30339 11.00000  0.06009  11.79
N009  3  0.61976  0.49058  0.41709 11.00000  0.05599  11.39
N00A  3  0.72123  0.23638  0.74115 11.00000  0.06140  11.28
N00B  3  0.17939  0.01174  0.63364 11.00000  0.05999   9.98
N00C  3  0.25230  0.25535  0.33236 11.00000  0.05798   9.10
O00D  4  0.93961  0.10405  0.78131 11.00000  0.14735   8.96
N00E  3  0.99233  0.35042  0.20391 11.00000  0.06777   8.87
N00F  3  0.54943  0.24068  0.71786 11.00000  0.05801   8.69
N00G  3  0.84607  0.30383  0.68633 11.00000  0.05121   8.27
O00H  4  0.95404  0.48906  0.56739 11.00000  0.07255   7.72
N00I  3 -0.01857  0.10714  0.46309 11.00000  0.05824   7.54
C00J  1  0.07571  0.25629  0.30832 11.00000  0.05532   7.45
N00K  3  0.36408  0.51644  0.44355 11.00000  0.15314   6.86
N00L  3  1.15267  0.37504  0.14846 11.00000  0.13807   6.64
N00M  3  0.51641  0.30308  0.52315 11.00000  0.11226   6.61
N00N  3 -0.14199 -0.08013  0.58323 11.00000  0.06823   6.51
C00O  1  1.28222  0.32924  0.52932 11.00000  0.18261   6.40
C00P  1  0.80855  0.14976  0.85154 11.00000  0.06527   6.39
C00Q  1  0.64306  0.39583  0.51305 11.00000  0.05521   6.12
C00R  1 -0.22960  0.16157  0.58868 11.00000  0.15867   6.09
C00S  1 -0.06051 -0.23896  0.77859 11.00000  0.09482   5.97
C00T  1  0.78148  0.73731  0.42785 11.00000  0.13635   5.90
C00U  1  0.53186  0.39370  0.63028 11.00000  0.13274   5.84
C00V  1  0.38118  0.21066  0.44172 11.00000  0.14039   5.72
C00W  1  0.76719  0.58396  0.39380 11.00000  0.06001   5.61
C00X  1  0.36987  0.09346  0.77071 11.00000  0.14962   5.49
C00Y  1  1.02138  0.46437  0.29002 11.00000  0.13755   5.28
C00Z  1  1.11451  0.03947  0.19938 11.00000  0.14052   5.25
C010  1  0.48277  0.52073  0.49063 11.00000  0.11886   5.19
C011  1 -0.02369  0.21600  0.56171 11.00000  0.12319   5.19
C012  1  0.31057  0.02646  0.71737 11.00000  0.13557   5.05
C013  1  1.17344  0.42324  0.44217 11.00000  0.15138   5.03
C014  1 -0.25885 -0.15621  0.59441 11.00000  0.10404   4.99
C015  1  1.21605  0.73034  0.52996 11.00000  0.14930   4.95
C016  1 -0.28222 -0.00289  0.54600 11.00000  0.14659   4.68
C017  1 -0.20840  0.21174  0.33642 11.00000  0.09781   4.59
C018  1  1.00327  0.15735  0.15711 11.00000  0.20403   4.57
C019  1 -0.23652  0.04324  0.40776 11.00000  0.16530   4.54
C01A  1  1.03840  0.48316  0.41200 11.00000  0.16420   4.46
C01B  1  0.44623  0.15687  0.59256 11.00000  0.13134   4.45
C01C  1  1.23726  0.66262  0.61488 11.00000  0.13365   4.22
C01D  1  0.27026  0.05422  0.42121 11.00000  0.16616   4.21
C01E  1  0.65651  0.35109  0.63871 11.00000  0.15352   4.12
C01F  1  0.96367  0.74558  0.45889 11.00000  0.13125   4.03
C01G  1  0.53019  0.23462  0.77173 11.00000  0.16846   3.93
C01H  1  0.32521  0.42737  0.31989 11.00000  0.12515   3.91
HKLF 4
END
