TITL SP14R08_expF_1_3_expS_0_5_SP14R08_a.res in Pn
REM Old TITL SP14R08 in P2(1)/n
REM SHELXT solution in Pn: R1 0.241, Rweak 0.213, Alpha 0.129
REM <I/s>   1.066 for  101 systematic absences,  Orientation as input
REM Formula found by SHELXT:  C10 N6 O5

CELL  0.71073   7.0200   9.2700  11.5600   90.000   97.670   90.000
ZERR   16.000   0.0014   0.0019   0.0023    0.000    0.030    0.000
LATT -1
SYMM 1/2+X, -Y, 1/2+Z
SFAC C H N O
UNIT 16 16 16 16
L.S. 10
BOND
LIST 6
FMAP 2
PLAN 20
C001  1  0.18244  0.73118  0.26483 11.00000  0.00261   9.85
O002  4  0.74717  0.60587  0.47015 11.00000  0.00010   9.74
O003  4  0.37035  0.74036  0.29935 11.00000  0.00985   9.59
O004  4 -0.05662  0.98946  0.44402 11.00000  0.02197   8.68
N005  3  0.87859  0.42258  0.35566 11.00000  0.01168   8.44
O006  4  0.18068  1.16938  0.71168 11.00000  0.00258   7.93
N007  3  0.95778  0.69646  0.65138 11.00000  0.01156   7.49
N008  3 -0.03214  1.07919  0.53144 11.00000  0.01174   7.36
N009  3  0.11197  0.64667  0.17053 11.00000  0.00010   7.12
C00A  1  0.91466  0.60567  0.55056 11.00000  0.01041   7.09
N00B  3  0.72133  0.51437  0.37090 11.00000  0.04302   6.94
N00C  3  0.06243  0.79607  0.33020 11.00000  0.01933   6.79
C00D  1  0.28761  0.98445  0.59523 11.00000  0.00166   6.01
C00E  1  0.94585  0.84306  0.82947 11.00000  0.02639   5.59
C00F  1  0.08772  0.89035  0.42792 11.00000  0.01548   5.53
C00G  1  0.85307  0.29972  0.26683 11.00000  0.02429   5.35
C00H  1  1.05390  0.42382  0.41728 11.00000  0.01982   5.04
O00I  4  0.66919  0.75061  0.68066 11.00000  0.03170   4.32
C00J  1  0.82462  0.76061  0.70584 11.00000  0.01487   4.02
C00K  1  1.05662  0.51676  0.51986 11.00000  0.01832   3.30
C00L  1  0.13977  1.07879  0.61586 11.00000  0.02789   3.27
HKLF 4
END
