TITL SP14R08_expF_1_1_expS_1_2_SP14R08_b.res in Pn
REM Old TITL SP14R08 in P2(1)/n
REM SHELXT solution in Pn: R1 0.283, Rweak 0.020, Alpha 0.026
REM <I/s>   1.758 for  101 systematic absences,  Orientation as input
REM Formula found by SHELXT:  C16 N4 O2

CELL  0.71073   7.0200   9.2700  11.5600   90.000   97.670   90.000
ZERR   16.000   0.0014   0.0019   0.0023    0.000    0.030    0.000
LATT -1
SYMM 1/2+X, -Y, 1/2+Z
SFAC C H N O
UNIT 16 16 16 16
L.S. 10
BOND
LIST 6
FMAP 2
PLAN 20
N001  3  0.55387  0.19751  0.34444 11.00000  0.04533   7.44
N002  3  0.58547  0.10090  0.44254 11.00000  0.05718   7.32
N003  3  0.33535  0.67295  0.27963 11.00000  0.03851   7.20
C004  1  0.67349  0.26714  0.28355 11.00000  0.04596   7.06
N005  3  0.22284  0.48658  0.39270 11.00000  0.04937   6.62
O006  4  0.85103  0.25896  0.31042 11.00000  0.04236   6.57
C007  1  0.35729  0.58306  0.36936 11.00000  0.04346   6.34
C008  1  0.45755 -0.08190  0.56339 11.00000  0.05951   6.17
C009  1  0.53147  0.57815  0.44802 11.00000  0.03793   6.10
C00A  1  0.56234  0.48049  0.54332 11.00000  0.04227   5.96
C00B  1  0.78839  0.01272  0.61023 11.00000  0.04718   5.91
C00C  1  0.57623  0.35300  0.17727 11.00000  0.05726   5.83
C00D  1  0.75509  0.10600  0.51180 11.00000  0.04711   5.81
C00E  1  0.65812 -0.17283  0.72462 11.00000  0.03952   5.78
C00F  1  0.23550  0.39312  0.48410 11.00000  0.04101   5.78
C00G  1  0.44467  0.01066  0.46325 11.00000  0.04585   5.68
O00H  4  0.14897  0.25038  0.69375 11.00000  0.07915   5.65
C00I  1  0.62297 -0.08056  0.62986 11.00000  0.04301   5.29
C00J  1  0.44943  0.30001  0.66504 11.00000  0.03738   5.11
C00K  1  0.31804  0.23928  0.72282 11.00000  0.04076   4.76
C00L  1  0.39783  0.15237  0.82273 11.00000  0.04188   4.68
C00M  1  0.40904  0.38935  0.56542 11.00000  0.03507   4.66
HKLF 4
END
