TITL SP14R08_expF_1_2_expS_1_4_SP14R08_b.res in Pn
REM Old TITL SP14R08 in P2(1)/n
REM SHELXT solution in Pn: R1 0.372, Rweak 0.013, Alpha 0.004
REM <I/s>   2.013 for  101 systematic absences,  Orientation as input
REM Formula found by SHELXT:  C13 N7 O2

CELL  0.71073   7.0200   9.2700  11.5600   90.000   97.670   90.000
ZERR   16.000   0.0014   0.0019   0.0023    0.000    0.030    0.000
LATT -1
SYMM 1/2+X, -Y, 1/2+Z
SFAC C H N O
UNIT 16 16 16 16
L.S. 10
BOND
LIST 6
FMAP 2
PLAN 20
N001  3  0.41302  0.89608  0.56572 11.00000  0.06363   7.98
N002  3  0.21847  0.98704  0.39547 11.00000  0.07385   7.46
N003  3  0.33311  1.16996  0.27865 11.00000  0.05277   7.19
N004  3  0.53662  1.08171  0.44688 11.00000  0.06707   7.16
N005  3  0.62922  0.41991  0.63072 11.00000  0.06256   7.12
N006  3  0.44811  0.80176  0.66064 11.00000  0.06134   6.72
N007  3  0.44258  0.52376  0.46322 11.00000  0.07564   6.53
C008  1  0.66040  0.32442  0.72324 11.00000  0.05378   6.47
O009  4  0.85328  0.75685  0.31020 11.00000  0.07647   6.46
C00A  1  0.31720  0.74138  0.72239 11.00000  0.06310   6.40
C00B  1  0.75592  0.60787  0.51705 11.00000  0.05697   6.23
C00C  1  0.55292  0.69958  0.34145 11.00000  0.05122   6.11
C00D  1  0.45882  0.42228  0.56103 11.00000  0.07439   5.82
C00E  1  0.78456  0.51375  0.61306 11.00000  0.06210   5.55
C00F  1  0.67701  0.76632  0.28553 11.00000  0.05963   5.54
C00G  1  0.40698  0.64949  0.82359 11.00000  0.05830   5.47
C00H  1  0.24052  0.89054  0.48621 11.00000  0.06206   5.38
C00I  1  0.55841  0.98749  0.54373 11.00000  0.05759   5.28
C00J  1  0.58765  0.84984  0.17641 11.00000  0.07471   5.25
O00K  4  0.14672  0.74727  0.69424 11.00000  0.07087   5.21
C00L  1  0.58932  0.60496  0.44186 11.00000  0.06014   4.74
C00M  1  0.36470  1.07631  0.37139 11.00000  0.06596   4.41
HKLF 4
END
