TITL SP14R08_expF_1_0_expS_0_8_SP14R08_c.res in P2(1)
REM Old TITL SP14R08 in P2(1)/n
REM SHELXT solution in P2(1): R1 0.247, Rweak 0.120, Alpha 0.202
REM <I/s>   1.884 for    6 systematic absences,  Orientation as input
REM Formula found by SHELXT:  C12 N4 O5

CELL  0.71073   7.0200   9.2700  11.5600   90.000   97.670   90.000
ZERR   16.000   0.0014   0.0019   0.0023    0.000    0.030    0.000
LATT -1
SYMM -X, 1/2+Y, -Z
SFAC C H N O
UNIT 16 16 16 16
L.S. 10
BOND
LIST 6
FMAP 2
PLAN 20
O001  4  0.15713  0.80598  1.07218 11.00000  0.00493   8.33
O002  4  0.80055  0.53812  0.19231 11.00000  0.02527   8.07
O003  4  0.39080  0.19402  0.43621 11.00000  0.01986   7.47
N004  3  0.20098  0.65314  0.91164 11.00000  0.01931   7.36
N005  3 -0.03112  0.46759  0.64175 11.00000  0.02836   7.34
N006  3  0.66882  0.34937  0.31239 11.00000  0.01381   7.13
C007  1  0.07089  0.72421  0.96944 11.00000  0.01184   7.12
N008  3  0.11544  0.37743  0.61410 11.00000  0.03226   6.86
O009  4  0.58562  0.61844  0.02499 11.00000  0.02962   6.68
C00A  1  0.49646  0.35915  0.23549 11.00000  0.01681   6.43
C00B  1  0.81025  0.44122  0.29124 11.00000  0.01758   5.91
C00C  1  0.69456  0.25364  0.40959 11.00000  0.01102   5.79
O00D  4 -0.09367  0.70718  0.94557 11.00000  0.03114   5.55
C00E  1  0.56857  0.19917  0.47168 11.00000  0.02071   5.48
C00F  1  0.08276  0.27367  0.53066 11.00000  0.00397   5.44
C00G  1  0.46823  0.44453  0.13648 11.00000  0.01645   5.44
C00H  1  0.30811  0.47475  0.79039 11.00000  0.02139   5.06
C00I  1 -0.01197  0.57327  0.73332 11.00000  0.01132   4.89
C00J  1  0.61850  0.53941  0.12370 11.00000  0.01291   4.73
C00K  1  0.14727  0.56351  0.81131 11.00000  0.02853   4.60
C00L  1  0.27710  0.38379  0.69727 11.00000  0.03502   3.71
HKLF 4
END
