TITL SP14R08_expF_0_6_expS_1_5_SP14R08_a.res in P2(1)/n
REM Old TITL SP14R08 in P2(1)/n
REM SHELXT solution in P2(1)/n: R1 0.274, Rweak 0.091, Alpha 0.117
REM <I/s>   1.299 for  107 systematic absences,  Orientation as input
REM Formula found by SHELXT:  C9 N O

CELL  0.71073   7.0200   9.2700  11.5600   90.000   97.670   90.000
ZERR   16.000   0.0014   0.0019   0.0023    0.000    0.030    0.000
LATT  1
SYMM 1/2-X, 1/2+Y, 1/2-Z
SFAC C H N O
UNIT 16 16 16 16
L.S. 10
BOND
LIST 6
FMAP 2
PLAN 20
N001  3  0.44892  0.55046  0.66115 11.00000  0.02505   6.55
O002  4  0.14953  0.49353  0.69128 11.00000  0.03362   6.37
C003  1  0.32078  0.48793  0.72100 11.00000  0.01884   6.25
C004  1  0.21797  0.73595  0.38975 11.00000  0.02113   6.13
C005  1  0.33504  0.92588  0.27823 11.00000  0.01564   6.13
C006  1  0.41181  0.64293  0.56164 11.00000  0.02144   5.95
C007  1  0.36725  0.82887  0.36991 11.00000  0.02214   5.88
C008  1  0.24108  0.64284  0.48512 11.00000  0.02115   5.65
C009  1  0.53923  0.82889  0.44473 11.00000  0.02562   5.58
C00A  1  0.40790  0.39916  0.82321 11.00000  0.02186   5.50
C00B  1  0.56128  0.73558  0.54082 11.00000  0.02358   5.48
HKLF 4
END
