TITL SP14R08_expF_0_7_expS_1_4_SP14R08_b.res in P2(1)
REM Old TITL SP14R08 in P2(1)/n
REM SHELXT solution in P2(1): R1 0.242, Rweak 0.059, Alpha 0.180
REM <I/s>   2.322 for    6 systematic absences,  Orientation as input
REM Formula found by SHELXT:  C14 N5 O3

CELL  0.71073   7.0200   9.2700  11.5600   90.000   97.670   90.000
ZERR   16.000   0.0014   0.0019   0.0023    0.000    0.030    0.000
LATT -1
SYMM -X, 1/2+Y, -Z
SFAC C H N O
UNIT 16 16 16 16
L.S. 10
BOND
LIST 6
FMAP 2
PLAN 20
O001  4  0.79719  0.69887  0.09092 11.00000  0.03452   7.75
N002  3  0.84601  0.85188 -0.07224 11.00000  0.02834   7.15
O003  4  0.60667  0.25448  0.56224 11.00000  0.03169   7.07
N004  3  0.53769  0.48957  0.86111 11.00000  0.03849   7.01
N005  3  0.87968  0.43092  0.38137 11.00000  0.02634   6.97
N006  3  0.50933  0.40099  0.76698 11.00000  0.03013   6.57
N007  3  0.21335  0.59031  0.80021 11.00000  0.04287   6.52
C008  1  0.34139  0.39484  0.68882 11.00000  0.02871   6.41
C009  1  0.41538  0.66687  0.97710 11.00000  0.01363   6.32
C00A  1  0.92896  0.77491  0.03294 11.00000  0.02309   5.96
C00B  1  0.43013  0.24843  0.52646 11.00000  0.02237   5.96
C00C  1  0.91312  0.31912  0.46743 11.00000  0.01637   5.94
C00D  1  0.68055  0.52483  0.20894 11.00000  0.02491   5.76
C00E  1  1.02839  0.51583  0.35857 11.00000  0.02323   5.67
C00F  1  0.83484  0.60875  0.18802 11.00000  0.02187   5.62
C00G  1  0.19979  0.49575  0.70968 11.00000  0.02519   5.53
C00H  1  0.70917  0.43182  0.30957 11.00000  0.02648   5.51
O00I  4  1.09808  0.76935  0.05516 11.00000  0.04251   5.25
C00J  1  1.00746  0.61370  0.26107 11.00000  0.02855   5.01
C00K  1  0.30663  0.29744  0.58856 11.00000  0.02382   4.84
C00L  1  0.38751  0.59136  0.87980 11.00000  0.03607   4.55
C00M  1  0.33805  0.14812  0.42688 11.00000  0.03947   3.39
HKLF 4
END
