TITL SP14R08_expF_0_7_expS_1_2_SP14R08_b.res in Pn
REM Old TITL SP14R08 in P2(1)/n
REM SHELXT solution in Pn: R1 0.232, Rweak 0.103, Alpha 0.061
REM <I/s>   1.198 for  101 systematic absences,  Orientation as input
REM Formula found by SHELXT:  C13 N O7

CELL  0.71073   7.0200   9.2700  11.5600   90.000   97.670   90.000
ZERR   16.000   0.0014   0.0019   0.0023    0.000    0.030    0.000
LATT -1
SYMM 1/2+X, -Y, 1/2+Z
SFAC C H N O
UNIT 16 16 16 16
L.S. 10
BOND
LIST 6
FMAP 2
PLAN 20
O001  4  0.78051  0.98398  0.61162 11.00000  0.00428  10.17
O002  4  0.66763  1.16879  0.73066 11.00000  0.02155   8.80
O003  4  0.14713  0.75275  0.69139 11.00000  0.02062   8.74
O004  4  0.44765  0.70710  0.66111 11.00000  0.03000   8.03
O005  4  0.23434  0.61256  0.48977 11.00000  0.03132   7.35
C006  1  0.41805  0.61008  0.56143 11.00000  0.01819   7.25
C007  1  0.31512  0.76800  0.72234 11.00000  0.01814   7.11
N008  3  0.46136  1.08574  0.55388 11.00000  0.01727   6.60
C009  1  0.62489  1.07795  0.63691 11.00000  0.01275   6.39
C00A  1  0.39785  0.85283  0.82317 11.00000  0.01483   6.37
C00B  1  0.55180  0.80481  0.34116 11.00000  0.01142   6.31
C00C  1  0.35487  0.41818  0.37640 11.00000  0.01696   6.19
C00D  1  0.43961  0.97980  0.46210 11.00000  0.02336   6.06
C00E  1  0.54812  0.43011  0.43999 11.00000  0.03376   5.49
C00F  1  0.55765  0.50839  0.54433 11.00000  0.02206   5.35
C00G  1  0.59106  0.89576  0.44130 11.00000  0.01529   5.34
C00H  1  0.57861  0.65027  0.17683 11.00000  0.02042   5.28
C00I  1  0.67337  0.74279  0.28309 11.00000  0.01705   5.22
C00J  1  0.75217  0.89756  0.51914 11.00000  0.02195   4.87
O00K  4  0.85287  0.73739  0.31056 11.00000  0.03290   4.69
O00L  4  0.34013  0.31599  0.28740 11.00000  0.03208   4.28
HKLF 4
END
