TITL SP14R08_expF_0_8_expS_1_4_SP14R08_a.res in P2(1)/n
REM Old TITL SP14R08 in P2(1)/n
REM SHELXT solution in P2(1)/n: R1 0.274, Rweak 0.038, Alpha 0.070
REM <I/s>   1.518 for  107 systematic absences,  Orientation as input
REM Formula found by SHELXT:  C10 O

CELL  0.71073   7.0200   9.2700  11.5600   90.000   97.670   90.000
ZERR   16.000   0.0014   0.0019   0.0023    0.000    0.030    0.000
LATT  1
SYMM 1/2-X, 1/2+Y, 1/2-Z
SFAC C H N O
UNIT 16 16 16 16
L.S. 10
BOND
LIST 6
FMAP 2
PLAN 20
C001  1  0.44944  0.55121  0.66061 11.00000  0.02741   6.49
C002  1  0.33742  0.92434  0.27842 11.00000  0.02492   6.34
C003  1  0.21761  0.73758  0.39081 11.00000  0.03191   6.17
O004  4  0.14874  0.49514  0.69166 11.00000  0.04873   6.16
C005  1  0.32057  0.48672  0.72119 11.00000  0.03056   6.14
C006  1  0.41246  0.64387  0.56193 11.00000  0.03091   5.88
C007  1  0.53660  0.83020  0.44424 11.00000  0.03632   5.80
C008  1  0.24099  0.64238  0.48561 11.00000  0.03203   5.77
C009  1  0.36693  0.82996  0.36984 11.00000  0.03296   5.75
C00A  1  0.56079  0.73530  0.54083 11.00000  0.03488   5.63
C00B  1  0.40831  0.39916  0.82340 11.00000  0.03399   5.37
HKLF 4
END
