TITL SP14R08_expF_1_0_expS_1_0_SP14R08_c.res in P2(1)
REM Old TITL SP14R08 in P2(1)/n
REM SHELXT solution in P2(1): R1 0.244, Rweak 0.061, Alpha 0.154
REM <I/s>   2.378 for    6 systematic absences,  Orientation as input
REM Formula found by SHELXT:  C16 N4 O2

CELL  0.71073   7.0200   9.2700  11.5600   90.000   97.670   90.000
ZERR   16.000   0.0014   0.0019   0.0023    0.000    0.030    0.000
LATT -1
SYMM -X, 1/2+Y, -Z
SFAC C H N O
UNIT 16 16 16 16
L.S. 10
BOND
LIST 6
FMAP 2
PLAN 20
N001  3  0.53678  0.52268  0.86242 11.00000  0.04087   6.87
C002  1  0.84493  0.41164  0.18474 11.00000  0.04549   6.81
N003  3  0.50801  0.62257  0.76600 11.00000  0.04314   6.71
N004  3  0.69361  0.49709  0.20638 11.00000  0.03903   6.71
N005  3  0.80398  0.29915  0.09057 11.00000  0.02594   6.70
C006  1  0.92459  0.25123  0.02539 11.00000  0.03159   6.31
C007  1  0.91414  0.67741  0.47443 11.00000  0.01889   6.16
C008  1  0.71733  0.59381  0.30184 11.00000  0.03097   6.00
O009  4  1.10141  0.24368  0.05685 11.00000  0.04265   5.95
O00A  4  0.60201  0.75493  0.56083 11.00000  0.04120   5.92
C00B  1  0.29756  0.69660  0.58769 11.00000  0.02984   5.66
C00C  1  0.41610  0.32850  0.97007 11.00000  0.02563   5.65
C00D  1  0.84590  0.14769 -0.07550 11.00000  0.03440   5.57
C00E  1  0.88265  0.58635  0.37665 11.00000  0.02503   5.54
C00F  1  0.38329  0.42719  0.88489 11.00000  0.03389   5.33
C00G  1  0.20471  0.43530  0.80877 11.00000  0.03254   5.19
C00H  1  0.43255  0.77422  0.53273 11.00000  0.02198   5.08
C00I  1  0.34011  0.85231  0.42903 11.00000  0.02856   4.86
C00J  1  1.03028  0.49643  0.35758 11.00000  0.02877   4.71
C00K  1  0.33349  0.62000  0.69069 11.00000  0.01390   4.61
C00L  1  0.18721  0.52626  0.71200 11.00000  0.03333   3.91
C00M  1  1.01032  0.40759  0.26365 11.00000  0.02081   3.91
HKLF 4
END
