TITL SP14R08_expF_0_8_expS_1_3_SP14R08_c.res in P2(1)
REM Old TITL SP14R08 in P2(1)/n
REM SHELXT solution in P2(1): R1 0.246, Rweak 0.048, Alpha 0.130
REM <I/s>   1.812 for    6 systematic absences,  Orientation as input
REM Formula found by SHELXT:  C14 N4 O4

CELL  0.71073   7.0200   9.2700  11.5600   90.000   97.670   90.000
ZERR   16.000   0.0014   0.0019   0.0023    0.000    0.030    0.000
LATT -1
SYMM -X, 1/2+Y, -Z
SFAC C H N O
UNIT 16 16 16 16
L.S. 10
BOND
LIST 6
FMAP 2
PLAN 20
O001  4  0.41440  0.34009  0.97465 11.00000  0.02087   8.00
N002  3  0.20570  0.43404  0.81027 11.00000  0.03445   7.30
N003  3  0.84403  0.14977 -0.07129 11.00000  0.03415   6.87
N004  3  0.33556  0.61758  0.68418 11.00000  0.02924   6.62
C005  1  0.43050  0.77094  0.53089 11.00000  0.02510   6.62
N006  3  0.80460  0.31117  0.08847 11.00000  0.02713   6.60
C007  1  0.88702  0.58662  0.37989 11.00000  0.02275   6.57
C008  1  1.01061  0.39824  0.26530 11.00000  0.02548   6.45
C009  1  0.29962  0.70912  0.59155 11.00000  0.02516   6.30
C00A  1  1.02795  0.48899  0.35849 11.00000  0.02863   6.21
C00B  1  0.53232  0.51797  0.86148 11.00000  0.02932   6.20
O00C  4  0.60558  0.76123  0.55924 11.00000  0.03576   6.11
O00D  4  1.09908  0.24772  0.05820 11.00000  0.04505   6.11
C00E  1  0.69323  0.50035  0.20602 11.00000  0.03056   5.98
C00F  1  0.92770  0.24817  0.02807 11.00000  0.02824   5.41
C00G  1  0.84014  0.40694  0.19224 11.00000  0.03185   5.28
C00H  1  0.18729  0.52868  0.71263 11.00000  0.02797   5.24
C00I  1  0.50894  0.61223  0.76480 11.00000  0.02860   5.08
C00J  1  0.37734  0.42455  0.88117 11.00000  0.03186   4.90
O00K  4  0.90755  0.69929  0.46504 11.00000  0.07478   4.66
C00L  1  0.71571  0.59478  0.30001 11.00000  0.03490   4.48
C00M  1  0.33926  0.85023  0.42411 11.00000  0.03712   3.84
HKLF 4
END
