TITL SP14R08_expF_1_1_expS_0_8_SP14R08_c.res in P2(1)
REM Old TITL SP14R08 in P2(1)/n
REM SHELXT solution in P2(1): R1 0.243, Rweak 0.090, Alpha 0.178
REM <I/s>   2.065 for    6 systematic absences,  Orientation as input
REM Formula found by SHELXT:  C15 N3 O4

CELL  0.71073   7.0200   9.2700  11.5600   90.000   97.670   90.000
ZERR   16.000   0.0014   0.0019   0.0023    0.000    0.030    0.000
LATT -1
SYMM -X, 1/2+Y, -Z
SFAC C H N O
UNIT 16 16 16 16
L.S. 10
BOND
LIST 6
FMAP 2
PLAN 20
N001  3  0.16847  0.38226  0.80915 11.00000  0.01220   7.90
C002  1  0.06858  0.23355  0.96911 11.00000  0.01143   7.87
O003  4  0.29518  0.56604  0.69451 11.00000  0.02439   7.59
O004  4  0.09209  0.66138  0.52861 11.00000  0.03832   7.36
N005  3  0.47152  0.50822  0.13838 11.00000  0.02232   7.17
O006  4  0.40564  0.73715  0.44692 11.00000  0.04357   6.80
N007  3  0.61683  0.40320  0.12040 11.00000  0.02608   6.79
C008  1  0.31027  0.46785  0.78698 11.00000  0.02370   6.46
C009  1  0.20007  0.29792  0.91029 11.00000  0.01249   6.45
C00A  1  0.69692  0.69902  0.41055 11.00000  0.01955   6.05
C00B  1 -0.00515  0.37342  0.73441 11.00000  0.02019   6.01
O00C  4 -0.10901  0.23021  0.93650 11.00000  0.02426   5.65
C00D  1  0.65589  0.85099  0.57346 11.00000  0.02188   5.62
C00E  1  0.15769  0.14901  1.07252 11.00000  0.02272   5.06
C00F  1  0.48788  0.58629  0.23724 11.00000  0.01617   5.03
C00G  1 -0.03597  0.47942  0.64072 11.00000  0.03582   4.94
C00H  1  0.57873  0.31385  0.02677 11.00000  0.01646   4.54
C00I  1  0.11879  0.56042  0.61888 11.00000  0.02662   4.31
C00J  1  0.80989  0.49731  0.29480 11.00000  0.02291   4.23
C00K  1  0.77490  0.40232  0.19782 11.00000  0.06267   4.01
C00L  1  0.64990  0.59065  0.31800 11.00000  0.04392   3.70
C00M  1  0.57125  0.76005  0.47115 11.00000  0.02767   3.65
HKLF 4
END
