TITL SP14R08_expF_0_7_expS_0_8_SP14R08_a.res in Pn
REM Old TITL SP14R08 in P2(1)/n
REM SHELXT solution in Pn: R1 0.264, Rweak 0.314, Alpha 0.125
REM <I/s>   1.053 for   97 systematic absences,  Orientation as input
REM Formula found by SHELXT:  C7 N O9

CELL  0.71073   7.0200   9.2700  11.5600   90.000   97.670   90.000
ZERR   16.000   0.0014   0.0019   0.0023    0.000    0.030    0.000
LATT -1
SYMM 1/2+X, -Y, 1/2+Z
SFAC C H N O
UNIT 16 16 16 16
L.S. 10
BOND
LIST 6
FMAP 2
PLAN 20
O001  4  0.40852  0.38991  0.57242 11.00000  0.00010  10.67
O002  4  0.63853 -0.08041  0.64404 11.00000  0.00010  10.61
O003  4  0.43693  0.29942  0.67392 11.00000  0.00444   8.67
O004  4  0.85096  0.24787  0.31743 11.00000  0.01682   8.28
O005  4  0.22269  0.48443  0.40401 11.00000  0.00010   7.41
N006  3  0.33593  0.67443  0.28836 11.00000  0.00010   6.87
C007  1  0.32682  0.23641  0.73372 11.00000  0.00010   6.63
C008  1  0.76226  0.10220  0.52599 11.00000  0.00010   6.44
O009  4  0.40141  0.14958  0.82041 11.00000  0.02297   5.93
C00A  1  0.58850  0.35070  0.17959 11.00000  0.00018   5.81
C00B  1  0.46485 -0.08559  0.57377 11.00000  0.00786   5.35
C00C  1  0.68603  0.26862  0.29265 11.00000  0.00360   5.29
C00D  1  0.56783  0.48165  0.54613 11.00000  0.00035   5.17
O00E  4  0.14904  0.23526  0.69862 11.00000  0.00916   5.15
C00F  1  0.45417  0.00264  0.47059 11.00000  0.01071   4.81
O00G  4  0.53366  0.19801  0.35428 11.00000  0.02743   3.78
O00H  4  0.55162  0.57830  0.46702 11.00000  0.02452   3.57
HKLF 4
END
