TITL SP14R08_expF_0_5_expS_1_2_SP14R08_a.res in Pn
REM Old TITL SP14R08 in P2(1)/n
REM SHELXT solution in Pn: R1 0.254, Rweak 0.264, Alpha 0.203
REM <I/s>   1.040 for  101 systematic absences,  Orientation as input
REM Formula found by SHELXT:  C8 N5 O7

CELL  0.71073   7.0200   9.2700  11.5600   90.000   97.670   90.000
ZERR   16.000   0.0014   0.0019   0.0023    0.000    0.030    0.000
LATT -1
SYMM 1/2+X, -Y, 1/2+Z
SFAC C H N O
UNIT 16 16 16 16
L.S. 10
BOND
LIST 6
FMAP 2
PLAN 20
O001  4  1.06040  0.48383  0.54344 11.00000  0.00010  10.35
O002  4  0.84444  0.67614  0.28139 11.00000  0.00010   9.22
N003  3  0.82766  0.23829  0.73084 11.00000  0.01635   9.12
O004  4  0.95661  0.30117  0.65916 11.00000  0.00885   8.57
O005  4  0.09820  0.34977  0.17702 11.00000  0.02855   7.58
O006  4  0.36015  0.25742  0.31404 11.00000  0.00010   7.55
N007  3  0.28135  0.00003  0.61341 11.00000  0.00760   7.43
N008  3  0.12654 -0.07539  0.63720 11.00000  0.01769   6.93
N009  3  1.02921  0.58738  0.44847 11.00000  0.01264   6.80
N00A  3  0.08417  0.11120  0.44136 11.00000  0.01964   6.78
C00B  1  0.73997  0.39663  0.49121 11.00000  0.01027   6.24
O00C  4  0.66050  0.25414  0.69928 11.00000  0.05381   6.18
C00D  1  0.25648  0.10802  0.51925 11.00000  0.01061   5.95
C00E  1  0.90897  0.39091  0.56706 11.00000  0.00559   5.85
C00F  1  0.04996  0.20445  0.33366 11.00000  0.02043   5.31
C00G  1  0.85999  0.58540  0.37738 11.00000  0.00713   5.11
C00H  1 -0.06040 -0.07401  0.55570 11.00000  0.01301   4.90
C00I  1  0.72408  0.46840  0.38955 11.00000  0.01106   4.73
O00J  4  0.91195  0.15106  0.82298 11.00000  0.02716   4.53
C00K  1  0.18140  0.26695  0.28805 11.00000  0.00153   3.49
HKLF 4
END
