TITL SP14R08_expF_0_6_expS_1_3_SP14R08_c.res in P2(1)
REM Old TITL SP14R08 in P2(1)/n
REM SHELXT solution in P2(1): R1 0.252, Rweak 0.136, Alpha 0.150
REM <I/s>   1.839 for    6 systematic absences,  Orientation as input
REM Formula found by SHELXT:  C13 N2 O6

CELL  0.71073   7.0200   9.2700  11.5600   90.000   97.670   90.000
ZERR   16.000   0.0014   0.0019   0.0023    0.000    0.030    0.000
LATT -1
SYMM -X, 1/2+Y, -Z
SFAC C H N O
UNIT 16 16 16 16
L.S. 10
BOND
LIST 6
FMAP 2
PLAN 20
O001  4  0.20022  0.69398  0.90971 11.00000  0.03024   8.48
O002  4  0.49014  0.38963  0.23496 11.00000  0.00010   8.26
O003  4  0.39322  0.23616  0.43785 11.00000  0.02018   7.26
O004  4  0.58506  0.66261  0.02372 11.00000  0.02513   7.01
N005  3  0.15414  0.85013  1.07052 11.00000  0.01934   6.65
N006  3  0.16420  0.59123  0.81510 11.00000  0.01896   6.53
C007  1  0.57396  0.23472  0.47434 11.00000  0.01975   6.47
C008  1  0.80806  0.47809  0.29245 11.00000  0.02075   6.37
C009  1  0.79222  0.57510  0.19364 11.00000  0.02002   6.30
C00A  1  0.61379  0.58079  0.11897 11.00000  0.01784   6.19
C00B  1  0.46903  0.48702  0.13789 11.00000  0.01037   6.07
C00C  1  0.11848  0.42210  0.62086 11.00000  0.00925   6.07
C00D  1  0.65817  0.37463  0.30790 11.00000  0.01387   6.05
O00E  4 -0.09797  0.74986  0.94229 11.00000  0.02821   5.93
O00F  4 -0.03051  0.51937  0.64126 11.00000  0.03984   5.91
C00G  1  0.07041  0.76131  0.96681 11.00000  0.00625   5.89
C00H  1  0.69585  0.29295  0.41125 11.00000  0.00825   5.48
C00I  1  0.66280  0.14987  0.57551 11.00000  0.01854   5.36
C00J  1  0.08304  0.31077  0.53126 11.00000  0.00864   5.30
C00K  1  0.28982  0.41702  0.69663 11.00000  0.01644   5.06
C00L  1  0.31432  0.50599  0.78968 11.00000  0.01234   4.53
HKLF 4
END
