TITL SP14R08_expF_0_9_expS_0_6_SP14R08_b.res in P2(1)
REM Old TITL SP14R08 in P2(1)/n
REM SHELXT solution in P2(1): R1 0.280, Rweak 0.333, Alpha 0.293
REM <I/s>   1.416 for    6 systematic absences,  Orientation as input
REM Formula found by SHELXT:  C14 N3 O3

CELL  0.71073   7.0200   9.2700  11.5600   90.000   97.670   90.000
ZERR   16.000   0.0014   0.0019   0.0023    0.000    0.030    0.000
LATT -1
SYMM -X, 1/2+Y, -Z
SFAC C H N O
UNIT 16 16 16 16
L.S. 10
BOND
LIST 6
FMAP 2
PLAN 20
N001  3  0.38545  0.42105  0.87900 11.00000  0.00010   8.25
O002  4  0.69462  0.48355  0.20979 11.00000  0.00010   7.90
N003  3  0.33455  0.62112  0.68726 11.00000  0.00778   7.23
O004  4  0.59355  0.75605  0.54909 11.00000  0.01742   7.17
N005  3  0.30801  0.69629  0.59148 11.00000  0.00683   6.99
C006  1  0.93679  0.23909  0.02370 11.00000  0.01207   6.30
C007  1  0.91154  0.69040  0.46802 11.00000  0.00270   6.17
C008  1  0.34995  0.85053  0.42392 11.00000  0.00010   5.94
C009  1  0.51583  0.60363  0.76372 11.00000  0.00010   5.91
C00A  1  0.52552  0.52809  0.86102 11.00000  0.00010   5.58
C00B  1  0.43286  0.76511  0.53339 11.00000  0.00647   5.42
C00C  1  0.71381  0.59464  0.30333 11.00000  0.00829   5.40
C00D  1  1.03826  0.50145  0.36552 11.00000  0.00619   5.07
C00E  1  0.42847  0.32970  0.97514 11.00000  0.00010   5.00
C00F  1  0.19938  0.44519  0.80486 11.00000  0.01231   4.98
C00G  1  0.79810  0.29208  0.08455 11.00000  0.00613   4.75
O00H  4  1.11002  0.23655  0.06929 11.00000  0.00565   4.49
C00I  1  1.00136  0.38286  0.26734 11.00000  0.00950   4.45
C00J  1  0.83824  0.14947 -0.06030 11.00000  0.01036   4.42
C00K  1  0.84525  0.41449  0.18881 11.00000  0.01856   4.16
HKLF 4
END
