TITL SP14R08_expF_0_7_expS_1_5_SP14R08_b.res in Pn
REM Old TITL SP14R08 in P2(1)/n
REM SHELXT solution in Pn: R1 0.238, Rweak 0.040, Alpha 0.033
REM <I/s>   1.398 for  101 systematic absences,  Orientation as input
REM Formula found by SHELXT:  C17 N2 O2

CELL  0.71073   7.0200   9.2700  11.5600   90.000   97.670   90.000
ZERR   16.000   0.0014   0.0019   0.0023    0.000    0.030    0.000
LATT -1
SYMM 1/2+X, -Y, 1/2+Z
SFAC C H N O
UNIT 16 16 16 16
L.S. 10
BOND
LIST 6
FMAP 2
PLAN 20
O001  4  0.24125  0.39333  0.48750 11.00000  0.02041   8.85
N002  3  0.32191  0.23641  0.72499 11.00000  0.04889   7.20
N003  3  0.45628  0.30483  0.66513 11.00000  0.03357   6.91
C004  1  0.41636  0.39469  0.56513 11.00000  0.02697   6.54
C005  1  0.46496 -0.07606  0.55751 11.00000  0.03190   6.45
C006  1  0.21788  0.49217  0.39168 11.00000  0.03414   6.19
C007  1  0.14935  0.24448  0.69296 11.00000  0.02458   6.12
C008  1  0.34395  0.67895  0.28145 11.00000  0.02479   5.97
C009  1  0.66823 -0.17041  0.72484 11.00000  0.02326   5.88
O00A  4  0.85065  0.25708  0.30986 11.00000  0.04321   5.65
C00B  1  0.43706  0.01847  0.46291 11.00000  0.03627   5.62
C00C  1  0.35970  0.57959  0.37098 11.00000  0.02598   5.60
C00D  1  0.61913 -0.07995  0.63072 11.00000  0.03875   5.37
C00E  1  0.58910  0.35420  0.17701 11.00000  0.04054   5.26
C00F  1  0.55545  0.49023  0.54280 11.00000  0.03082   5.26
C00G  1  0.78176  0.01765  0.61026 11.00000  0.03221   5.20
C00H  1  0.40224  0.15367  0.82299 11.00000  0.03068   5.07
C00I  1  0.56114  0.20159  0.34523 11.00000  0.02636   5.05
C00J  1  0.59391  0.10835  0.44236 11.00000  0.03282   4.59
C00K  1  0.54417  0.58267  0.44566 11.00000  0.04244   4.18
C00L  1  0.68141  0.25914  0.28388 11.00000  0.02433   4.09
HKLF 4
END
