TITL SP14R08_expF_1_1_expS_1_3_SP14R08_a.res in P2(1)/n
REM Old TITL SP14R08 in P2(1)/n
REM SHELXT solution in P2(1)/n: R1 0.337, Rweak 0.018, Alpha 0.048
REM <I/s>   1.678 for  107 systematic absences,  Orientation as input
REM Formula found by SHELXT:  C10 O

CELL  0.71073   7.0200   9.2700  11.5600   90.000   97.670   90.000
ZERR   16.000   0.0014   0.0019   0.0023    0.000    0.030    0.000
LATT  1
SYMM 1/2-X, 1/2+Y, 1/2-Z
SFAC C H N O
UNIT 16 16 16 16
L.S. 10
BOND
LIST 6
FMAP 2
PLAN 20
C001  1  0.66111  0.92377  0.72169 11.00000  0.03357   6.48
C002  1  0.55228  0.55223  0.33970 11.00000  0.03855   6.35
C003  1  0.78366  0.73837  0.60815 11.00000  0.04373   6.20
C004  1  0.46415  0.82968  0.55550 11.00000  0.04759   6.10
C005  1  0.58925  0.64370  0.43754 11.00000  0.04003   6.09
O006  4  0.85244  0.49341  0.30848 11.00000  0.05997   6.00
C007  1  0.67990  0.48750  0.27897 11.00000  0.04440   5.82
C008  1  0.44138  0.73396  0.45946 11.00000  0.04569   5.73
C009  1  0.76111  0.64180  0.51470 11.00000  0.04141   5.71
C00A  1  0.63208  0.83097  0.62925 11.00000  0.04218   5.69
C00B  1  0.58940  0.39960  0.17701 11.00000  0.05013   5.38
HKLF 4
END
