TITL SP14R08_expF_1_2_expS_1_4_SP14R08_a.res in P2(1)/n
REM Old TITL SP14R08 in P2(1)/n
REM SHELXT solution in P2(1)/n: R1 0.408, Rweak 0.015, Alpha 0.024
REM <I/s>   1.960 for  107 systematic absences,  Orientation as input
REM Formula found by SHELXT:  C9 N O

CELL  0.71073   7.0200   9.2700  11.5600   90.000   97.670   90.000
ZERR   16.000   0.0014   0.0019   0.0023    0.000    0.030    0.000
LATT  1
SYMM 1/2-X, 1/2+Y, 1/2-Z
SFAC C H N O
UNIT 16 16 16 16
L.S. 10
BOND
LIST 6
FMAP 2
PLAN 20
N001  3  0.66061  0.92491  0.72223 11.00000  0.05374   6.67
C002  1  0.55256  0.55214  0.34028 11.00000  0.04712   6.31
C003  1  0.78147  0.73747  0.60934 11.00000  0.05834   6.21
C004  1  0.45888  0.82923  0.55668 11.00000  0.06041   6.15
C005  1  0.58845  0.64526  0.43672 11.00000  0.05100   6.11
C006  1  0.67804  0.48775  0.28100 11.00000  0.05684   5.88
O007  4  0.85463  0.49493  0.30828 11.00000  0.06967   5.83
C008  1  0.75996  0.64163  0.51613 11.00000  0.05365   5.82
C009  1  0.63260  0.82812  0.62980 11.00000  0.05272   5.77
C00A  1  0.44183  0.73359  0.46055 11.00000  0.05739   5.74
C00B  1  0.58520  0.39867  0.17589 11.00000  0.06191   5.31
HKLF 4
END
