TITL SP14R08_expF_0_9_expS_1_1_SP14R08_b.res in Pn
REM Old TITL SP14R08 in P2(1)/n
REM SHELXT solution in Pn: R1 0.240, Rweak 0.051, Alpha 0.028
REM <I/s>   1.334 for  101 systematic absences,  Orientation as input
REM Formula found by SHELXT:  C11 N3 O7

CELL  0.71073   7.0200   9.2700  11.5600   90.000   97.670   90.000
ZERR   16.000   0.0014   0.0019   0.0023    0.000    0.030    0.000
LATT -1
SYMM 1/2+X, -Y, 1/2+Z
SFAC C H N O
UNIT 16 16 16 16
L.S. 10
BOND
LIST 6
FMAP 2
PLAN 20
N001  3  0.91088  0.10639  0.56215 11.00000  0.00010  11.16
O002  4  0.71839  0.01242  0.39018 11.00000  0.03409   9.15
O003  4  0.35071  0.24334  0.31209 11.00000  0.02909   8.74
O004  4  1.03155 -0.07558  0.44286 11.00000  0.02391   8.45
O005  4  0.82993 -0.17169  0.27538 11.00000  0.02429   7.93
N006  3  0.13064  0.58051  0.62936 11.00000  0.02886   7.92
O007  4 -0.05666  0.48385  0.45744 11.00000  0.04216   7.42
O008  4  0.04849  0.30558  0.34100 11.00000  0.03898   7.21
C009  1  0.81992  0.25650  0.72403 11.00000  0.01927   7.19
N00A  3  0.94545  0.20217  0.66180 11.00000  0.02648   6.85
C00B  1  0.91173  0.34618  0.82307 11.00000  0.02167   6.37
C00C  1  0.17648  0.23161  0.28484 11.00000  0.02231   6.13
C00D  1  0.15497  0.68075  0.71851 11.00000  0.02660   6.11
C00E  1  0.25338  0.39222  0.51757 11.00000  0.02625   5.80
C00F  1  0.73304  0.10729  0.48641 11.00000  0.02356   5.75
C00G  1  0.09489  0.14356  0.17693 11.00000  0.02915   5.66
O00H  4  0.64740  0.25694  0.69415 11.00000  0.04093   4.86
C00I  1  1.05969  0.00980  0.53955 11.00000  0.02483   4.55
C00J  1  0.28661  0.48560  0.60919 11.00000  0.03143   4.53
C00K  1 -0.05969  0.58620  0.54950 11.00000  0.06469   4.10
C00L  1  0.86588 -0.07861  0.36811 11.00000  0.03238   4.06
HKLF 4
END
