TITL SP14R08_expF_1_3_expS_0_8_SP14R08_b.res in Pn
REM Old TITL SP14R08 in P2(1)/n
REM SHELXT solution in Pn: R1 0.229, Rweak 0.041, Alpha 0.036
REM <I/s>   1.388 for  101 systematic absences,  Orientation as input
REM Formula found by SHELXT:  C10 N5 O7

CELL  0.71073   7.0200   9.2700  11.5600   90.000   97.670   90.000
ZERR   16.000   0.0014   0.0019   0.0023    0.000    0.030    0.000
LATT -1
SYMM 1/2+X, -Y, 1/2+Z
SFAC C H N O
UNIT 16 16 16 16
L.S. 10
BOND
LIST 6
FMAP 2
PLAN 20
N001  3  0.63572  0.58688  0.63645 11.00000  0.03286  10.00
N002  3  0.40851  0.11532  0.55864 11.00000  0.02481   9.27
O003  4  0.85093  0.24960  0.31310 11.00000  0.02986   8.96
O004  4  0.42771  0.48655  0.45761 11.00000  0.04042   8.79
O005  4  0.74477  0.39586  0.51579 11.00000  0.02560   8.77
O006  4  0.54504  0.30123  0.34103 11.00000  0.02842   8.58
O007  4  0.65451  0.67774  0.72577 11.00000  0.03516   8.21
O008  4  0.52746 -0.07641  0.44110 11.00000  0.04215   7.73
C009  1  0.31438  0.26891  0.71427 11.00000  0.02115   7.48
N00A  3  0.21034  0.01774  0.39496 11.00000  0.03619   7.31
N00B  3  0.40649  0.34980  0.82337 11.00000  0.03242   6.96
N00C  3  0.77726  0.48993  0.61399 11.00000  0.02937   6.54
C00D  1  0.32662 -0.17096  0.28197 11.00000  0.01640   6.22
C00E  1  0.44255  0.19854  0.66219 11.00000  0.03127   6.15
C00F  1  0.67269  0.24255  0.27476 11.00000  0.02032   5.93
C00G  1  0.58956  0.14785  0.17663 11.00000  0.02804   5.79
O00H  4  0.14907  0.26354  0.69639 11.00000  0.04117   5.29
C00I  1  0.44956  0.58236  0.55149 11.00000  0.03471   5.04
C00J  1  0.21831  0.10763  0.48723 11.00000  0.04002   4.10
C00K  1  0.54559  0.01361  0.53827 11.00000  0.03242   3.99
C00L  1  0.58181  0.40340  0.43452 11.00000  0.02451   3.86
C00M  1  0.36766 -0.07482  0.37518 11.00000  0.01946   3.66
HKLF 4
END
