TITL SP14R08_expF_0_6_expS_1_2_SP14R08_a.res in Pn
REM Old TITL SP14R08 in P2(1)/n
REM SHELXT solution in Pn: R1 0.234, Rweak 0.155, Alpha 0.127
REM <I/s>   1.116 for  101 systematic absences,  Orientation as input
REM Formula found by SHELXT:  C8 N5 O10

CELL  0.71073   7.0200   9.2700  11.5600   90.000   97.670   90.000
ZERR   16.000   0.0014   0.0019   0.0023    0.000    0.030    0.000
LATT -1
SYMM 1/2+X, -Y, 1/2+Z
SFAC C H N O
UNIT 16 16 16 16
L.S. 10
BOND
LIST 6
FMAP 2
PLAN 20
O001  4  0.10790  0.64931  0.17656 11.00000  0.00809   9.93
O002  4  0.64973  0.75841  0.68658 11.00000  0.01406   9.83
N003  3  0.14288  1.07865  0.62718 11.00000  0.00895   9.70
O004  4  0.28397  0.97739  0.60544 11.00000  0.00703   9.32
O005  4  1.05126  0.41665  0.44657 11.00000  0.01388   9.16
N006  3  0.82133  0.76148  0.72659 11.00000  0.01006   8.89
O007  4  0.75343  0.61111  0.48346 11.00000  0.00784   8.79
O008  4  1.06220  0.50512  0.54179 11.00000  0.01382   8.78
O009  4  0.05933  0.79606  0.34654 11.00000  0.02378   8.53
N00A  3  0.10284  0.89905  0.44061 11.00000  0.00812   7.57
O00B  4  0.16902  1.16311  0.71939 11.00000  0.02112   7.42
N00C  3  0.95682  0.69650  0.66562 11.00000  0.00809   7.28
C00D  1  0.92866  0.61696  0.56426 11.00000  0.01250   7.03
N00E  3  0.83968  0.31244  0.27705 11.00000  0.01080   6.76
O00F  4  0.35081  0.74779  0.30453 11.00000  0.02360   5.49
C00G  1  0.17947  0.73374  0.28577 11.00000  0.00010   5.31
C00H  1 -0.02117  1.06600  0.56078 11.00000  0.03836   5.03
C00I  1  0.27529  0.90868  0.51202 11.00000  0.02914   4.84
C00J  1  0.87600  0.41649  0.36619 11.00000  0.01376   4.46
C00K  1  0.71024  0.49710  0.38065 11.00000  0.02294   4.42
C00L  1 -0.06220  0.97510  0.46075 11.00000  0.02724   4.11
O00M  4  0.38650  0.81058  0.50290 11.00000  0.14349   3.90
C00N  1  0.93503  0.85164  0.82344 11.00000  0.01852   3.42
HKLF 4
END
