TITL SP14R08_expF_0_9_expS_1_2_SP14R08_a.res in P2(1)/n
REM Old TITL SP14R08 in P2(1)/n
REM SHELXT solution in P2(1)/n: R1 0.272, Rweak 0.043, Alpha 0.107
REM <I/s>   1.459 for  107 systematic absences,  Orientation as input
REM Formula found by SHELXT:  C10 O

CELL  0.71073   7.0200   9.2700  11.5600   90.000   97.670   90.000
ZERR   16.000   0.0014   0.0019   0.0023    0.000    0.030    0.000
LATT  1
SYMM 1/2-X, 1/2+Y, 1/2-Z
SFAC C H N O
UNIT 16 16 16 16
L.S. 10
BOND
LIST 6
FMAP 2
PLAN 20
C001  1  0.44935  0.44878  0.66068 11.00000  0.02526   6.48
O002  4  0.14935  0.50482  0.69156 11.00000  0.04575   6.35
C003  1  0.33661  0.07512  0.27850 11.00000  0.02328   6.33
C004  1  0.21769  0.26296  0.39051 11.00000  0.02971   6.20
C005  1  0.32084  0.51280  0.72128 11.00000  0.02790   6.04
C006  1  0.41259  0.35634  0.56208 11.00000  0.02864   6.00
C007  1  0.53672  0.17044  0.44431 11.00000  0.03356   5.80
C008  1  0.36696  0.17023  0.36976 11.00000  0.02997   5.77
C009  1  0.56108  0.26380  0.54076 11.00000  0.03182   5.70
C00A  1  0.24123  0.35689  0.48561 11.00000  0.02963   5.64
C00B  1  0.40873  0.60072  0.82342 11.00000  0.03202   5.47
HKLF 4
END
