TITL SP14R08_expF_1_1_expS_1_1_SP14R08_b.res in Pn
REM Old TITL SP14R08 in P2(1)/n
REM SHELXT solution in Pn: R1 0.262, Rweak 0.028, Alpha 0.023
REM <I/s>   1.593 for  101 systematic absences,  Orientation as input
REM Formula found by SHELXT:  C17 N O4

CELL  0.71073   7.0200   9.2700  11.5600   90.000   97.670   90.000
ZERR   16.000   0.0014   0.0019   0.0023    0.000    0.030    0.000
LATT -1
SYMM 1/2+X, -Y, 1/2+Z
SFAC C H N O
UNIT 16 16 16 16
L.S. 10
BOND
LIST 6
FMAP 2
PLAN 20
O001  4  0.34022  1.17134  0.28165 11.00000  0.03078   8.10
O002  4  0.85011  0.76067  0.31051 11.00000  0.05824   8.10
O003  4  0.22689  0.98902  0.40055 11.00000  0.04830   7.71
N004  3  0.55079  0.70089  0.34074 11.00000  0.04156   6.96
C005  1  0.33150  0.74575  0.72192 11.00000  0.03586   6.60
C006  1  0.54969  1.08435  0.45291 11.00000  0.03408   6.39
C007  1  0.41899  0.89759  0.56524 11.00000  0.03501   6.32
C008  1  0.60507  0.84845  0.17685 11.00000  0.04232   6.18
C009  1  0.25313  0.89445  0.48947 11.00000  0.03972   6.13
C00A  1  0.44668  0.51362  0.46418 11.00000  0.03566   6.09
C00B  1  0.37588  1.08067  0.37487 11.00000  0.03633   6.07
C00C  1  0.59381  0.61045  0.44290 11.00000  0.03178   5.98
C00D  1  0.47435  0.42504  0.56510 11.00000  0.04303   5.83
C00E  1  0.44740  0.80318  0.66137 11.00000  0.02523   5.81
C00F  1  0.63975  0.41663  0.63452 11.00000  0.03381   5.61
C00G  1  0.56445  0.98548  0.54425 11.00000  0.03821   5.52
C00H  1  0.77132  0.60685  0.51824 11.00000  0.03138   5.46
C00I  1  0.68747  0.76877  0.28269 11.00000  0.03404   5.11
C00J  1  0.65786  0.32341  0.72660 11.00000  0.04838   4.91
C00K  1  0.78879  0.51477  0.62162 11.00000  0.04199   4.88
C00L  1  0.42181  0.64668  0.82315 11.00000  0.03736   4.65
O00M  4  0.14989  0.74639  0.69488 11.00000  0.03942   4.11
HKLF 4
END
