TITL SP14R08_expF_1_3_expS_1_1_SP14R08_b.res in Pn
REM Old TITL SP14R08 in P2(1)/n
REM SHELXT solution in Pn: R1 0.318, Rweak 0.015, Alpha 0.012
REM <I/s>   1.729 for  101 systematic absences,  Orientation as input
REM Formula found by SHELXT:  C16 N3 O4

CELL  0.71073   7.0200   9.2700  11.5600   90.000   97.670   90.000
ZERR   16.000   0.0014   0.0019   0.0023    0.000    0.030    0.000
LATT -1
SYMM 1/2+X, -Y, 1/2+Z
SFAC C H N O
UNIT 16 16 16 16
L.S. 10
BOND
LIST 6
FMAP 2
PLAN 20
O001  4  0.05003  0.20327  0.33510 11.00000  0.06482   7.64
N002  3  0.27959  0.01394  0.60361 11.00000  0.04613   7.17
O003  4  0.64723  0.23898  0.69032 11.00000  0.05292   6.89
N004  3  0.16849 -0.17037  0.72160 11.00000  0.03661   6.81
C005  1  0.09162  0.11076  0.43327 11.00000  0.03585   6.61
C006  1  0.25796  0.10715  0.51147 11.00000  0.04211   6.61
N007  3  1.03749  0.58207  0.43970 11.00000  0.06367   6.54
C008  1  0.84420  0.67630  0.27752 11.00000  0.04087   6.33
C009  1  1.05808  0.48873  0.53652 11.00000  0.04601   6.26
C00A  1  0.09687  0.34771  0.17554 11.00000  0.04136   6.09
C00B  1  0.18151  0.25883  0.27707 11.00000  0.04155   6.01
C00C  1  0.87511  0.57932  0.36798 11.00000  0.04659   5.87
C00D  1 -0.03532 -0.07673  0.55228 11.00000  0.04273   5.85
C00E  1  0.14054 -0.08398  0.62856 11.00000  0.04040   5.67
C00F  1  0.91861  0.39820  0.55785 11.00000  0.04840   5.65
C00G  1  0.82292  0.23286  0.71477 11.00000  0.04862   5.64
C00H  1 -0.05808  0.02054  0.45495 11.00000  0.04750   5.33
C00I  1  0.71089  0.48841  0.38427 11.00000  0.05235   5.29
O00J  4  0.35229  0.25418  0.30698 11.00000  0.05920   5.11
C00K  1  0.94668  0.30468  0.65677 11.00000  0.03447   5.00
C00L  1  0.73764  0.39479  0.48157 11.00000  0.04383   4.88
C00M  1  0.91726  0.14580  0.82446 11.00000  0.05910   4.56
O00N  4  0.35958  0.18486  0.47525 11.00000  0.34088   3.19
HKLF 4
END
