TITL SP14R08_expF_0_6_expS_0_7_SP14R08_a.res in Pn
REM Old TITL SP14R08 in P2(1)/n
REM SHELXT solution in Pn: R1 0.290, Rweak 0.484, Alpha 0.287
REM <I/s>   0.988 for   97 systematic absences,  Orientation as input
REM Formula found by SHELXT:  C10 N5 O5

CELL  0.71073   7.0200   9.2700  11.5600   90.000   97.670   90.000
ZERR   16.000   0.0014   0.0019   0.0023    0.000    0.030    0.000
LATT -1
SYMM 1/2+X, -Y, 1/2+Z
SFAC C H N O
UNIT 16 16 16 16
L.S. 10
BOND
LIST 6
FMAP 2
PLAN 20
N001  3  0.87748  0.42055  0.37103 11.00000  0.00010  12.47
N002  3  0.19001  0.73728  0.27615 11.00000  0.00010   9.53
O003  4  0.35823  0.73711  0.30753 11.00000  0.00010   8.43
O004  4  0.98310  0.69764  0.66288 11.00000  0.01927   8.36
C005  1  0.72707  0.48978  0.39086 11.00000  0.00613   7.94
O006  4  0.07693  0.64863  0.17702 11.00000  0.01680   7.63
O007  4  0.84203  0.33114  0.27589 11.00000  0.00010   7.36
N008  3  0.10303  0.89461  0.43752 11.00000  0.00010   7.05
N009  3  0.74753  0.61207  0.47740 11.00000  0.00010   6.80
C00A  1  1.04268  0.41464  0.44631 11.00000  0.00010   6.33
C00B  1  0.07878  0.80306  0.33809 11.00000  0.00010   5.53
C00C  1  0.66668  0.74872  0.69090 11.00000  0.00228   5.46
C00D  1  0.95200  0.61828  0.56438 11.00000  0.01342   5.16
C00E  1  1.06276  0.51861  0.52953 11.00000  0.00942   5.14
N00F  3  0.65495  0.80609  0.21404 11.00000  0.05039   4.83
C00G  1  0.29598  0.97288  0.61561 11.00000  0.00112   4.66
C00H  1 -0.06276  0.98253  0.45306 11.00000  0.00010   4.59
C00I  1  0.89265  0.84888  0.82298 11.00000  0.00010   3.78
C00J  1  0.28015  0.82597  0.48935 11.00000  0.09302   3.67
O00K  4  0.55689  0.53886  0.30903 11.00000  0.10788   3.42
HKLF 4
END
