TITL SP14R08_expF_0_5_expS_1_5_SP14R08_b.res in P2(1)
REM Old TITL SP14R08 in P2(1)/n
REM SHELXT solution in P2(1): R1 0.249, Rweak 0.157, Alpha 0.205
REM <I/s>   1.776 for    6 systematic absences,  Orientation as input
REM Formula found by SHELXT:  C12 N3 O7

CELL  0.71073   7.0200   9.2700  11.5600   90.000   97.670   90.000
ZERR   16.000   0.0014   0.0019   0.0023    0.000    0.030    0.000
LATT -1
SYMM -X, 1/2+Y, -Z
SFAC C H N O
UNIT 16 16 16 16
L.S. 10
BOND
LIST 6
FMAP 2
PLAN 20
O001  4  0.60617  0.75826  0.56309 11.00000  0.01088   8.93
O002  4  1.03526  0.48371  0.35752 11.00000  0.02199   8.20
O003  4  0.20863  0.41660  0.80491 11.00000  0.00980   7.91
O004  4  0.91036  0.67142  0.47182 11.00000  0.01381   7.86
N005  3  1.00649  0.38272  0.26725 11.00000  0.01155   7.28
C006  1  0.43009  0.74674  0.52987 11.00000  0.00810   7.27
N007  3  0.32650  0.59372  0.69040 11.00000  0.01922   7.20
O008  4  0.80125  0.30120  0.08874 11.00000  0.01379   7.12
N009  3  0.30358  0.70741  0.59250 11.00000  0.02476   7.02
C00A  1  0.38057  0.40471  0.87861 11.00000  0.00643   6.69
O00B  4  0.84759  0.14774 -0.07227 11.00000  0.02047   6.62
C00C  1  0.68569  0.47399  0.21464 11.00000  0.02061   6.08
C00D  1  0.92852  0.22181  0.02978 11.00000  0.00828   6.07
C00E  1  0.33588  0.85226  0.42664 11.00000  0.02398   6.00
C00F  1  0.88680  0.56553  0.38219 11.00000  0.01615   5.92
C00G  1  0.85065  0.37942  0.18754 11.00000  0.00811   5.54
C00H  1  0.19273  0.50655  0.70399 11.00000  0.01018   5.44
C00I  1  0.42126  0.32420  0.97310 11.00000  0.02291   4.77
C00J  1  0.52876  0.51194  0.86811 11.00000  0.02016   4.39
C00K  1  0.70536  0.57561  0.30690 11.00000  0.08468   4.33
C00L  1  0.51254  0.59553  0.76191 11.00000  0.02150   4.13
O00M  4  1.09157  0.24896  0.05163 11.00000  0.03344   3.98
HKLF 4
END
