TITL SP14R08_expF_1_1_expS_0_8_SP14R08_a.res in P2(1)/n
REM Old TITL SP14R08 in P2(1)/n
REM SHELXT solution in P2(1)/n: R1 0.278, Rweak 0.104, Alpha 0.162
REM <I/s>   1.277 for  107 systematic absences,  Orientation as input
REM Formula found by SHELXT:  C10 O

CELL  0.71073   7.0200   9.2700  11.5600   90.000   97.670   90.000
ZERR   16.000   0.0014   0.0019   0.0023    0.000    0.030    0.000
LATT  1
SYMM 1/2-X, 1/2+Y, 1/2-Z
SFAC C H N O
UNIT 16 16 16 16
L.S. 10
BOND
LIST 6
FMAP 2
PLAN 20
O001  4  0.85125  0.49414  0.30857 11.00000  0.03363   6.40
C002  1  0.55089  0.55031  0.33899 11.00000  0.01676   6.39
C003  1  0.58790  0.64335  0.43802 11.00000  0.02257   6.21
C004  1  0.66496  0.92529  0.72181 11.00000  0.01732   6.19
C005  1  0.67952  0.48711  0.27890 11.00000  0.02019   6.14
C006  1  0.78209  0.73622  0.61044 11.00000  0.02186   6.14
C007  1  0.63259  0.82911  0.62973 11.00000  0.02250   5.82
C008  1  0.75866  0.64266  0.51477 11.00000  0.02137   5.68
C009  1  0.46048  0.82920  0.55499 11.00000  0.02635   5.62
C00A  1  0.43841  0.73586  0.45915 11.00000  0.02422   5.62
C00B  1  0.59240  0.39941  0.17694 11.00000  0.02218   5.54
HKLF 4
END
