TITL SP14R08_expF_0_5_expS_0_6_SP14R08_b.res in Pm
REM Old TITL SP14R08 in P2(1)/n
REM SHELXT solution in Pm: R1 0.161, Rweak 0.552, Alpha 0.175
REM <I/s>   0.000 for    0 systematic absences,  Orientation as input
REM Formula found by SHELXT:  C57 N15 O10 I

CELL  0.71073   7.0200   9.2700  11.5600   90.000   97.670   90.000
ZERR   16.000   0.0014   0.0019   0.0023    0.000    0.030    0.000
LATT -1
SYMM X, -Y, Z
SFAC C H N O I
UNIT 16 16 16 16 0
L.S. 10
BOND
LIST 6
FMAP 2
PLAN 20
I001  5  0.22977  0.50000  0.03001 10.50000  0.00010 142.42
N002  3  0.44287  1.00000  0.09769 10.50000  0.00634  19.47
O003  4  1.28945  0.30902  0.92437 11.00000  0.22415  12.48
C004  1  0.69020  0.00000  0.55309 10.50000  0.05311  12.05
N005  3  1.03940  0.40712  0.85907 11.00000  0.03701   9.69
O006  4  0.72751  0.17277  0.52645 11.00000  0.08340   9.14
O007  4  0.84626  0.50000  0.40321 10.50000  0.09149   8.99
N008  3  0.98005  0.31008  0.76944 11.00000  0.07124   8.84
O009  4  0.74041  0.50000  0.53969 10.50000  0.10967   8.67
O00A  4  0.72908  0.31069  0.53156 11.00000  0.08053   8.16
N00B  3  1.00697  0.50000  0.41440 10.50000  0.08406   7.23
O00C  4  0.65874  0.39995  0.79954 11.00000  0.15629   6.95
N00D  3  1.35157  0.19576  0.82992 11.00000  0.13952   6.78
N00E  3  1.14637  0.23772  0.74392 11.00000  0.09739   6.67
N00F  3  0.39701  0.50000  0.51932 10.50000  0.17895   6.64
C00G  1  0.27827  1.00000  0.11736 10.50000  0.04712   6.51
C00H  1  0.70694  0.50000  0.43747 10.50000  0.02593   6.34
C00I  1  0.95667  0.18535  0.59946 11.00000  0.08767   6.28
C00J  1  0.17684  0.86280  0.11887 11.00000  0.11422   6.23
C00K  1  0.53977  0.61035  0.08128 11.00000  0.07031   6.19
C00L  1 -0.35157  0.94859  0.27525 11.00000  0.24198   6.18
C00M  1  0.19034  0.71169  0.46081 11.00000  0.22630   6.12
C00N  1  0.89952  0.38473  0.68439 11.00000  0.09018   6.04
C00O  1  1.15256  0.16416  0.85194 11.00000  0.05881   6.03
C00P  1  0.53045  0.50000  0.36792 10.50000  0.11413   6.01
C00Q  1  0.85276  0.38792  0.85614 11.00000  0.13101   5.96
C00R  1  0.11660  0.68585  0.15120 11.00000  0.01399   5.79
C00S  1  0.51166  0.65819  0.22729 11.00000  0.13812   5.65
C00T  1 -0.16756  0.87892  0.31433 11.00000  0.19365   5.65
C00U  1  0.73064  0.00000  0.64759 10.50000  0.26497   5.63
C00V  1  0.91268  0.00000  0.56179 10.50000  0.05078   5.63
C00W  1 -0.06881  0.80501  0.13538 11.00000  0.09001   5.51
C00X  1  0.50783  0.37131  0.47813 11.00000  0.06344   5.47
C00Y  1 -0.23400  0.90688  0.09275 11.00000  0.18947   5.43
C00Z  1  0.37909  0.82800  0.39996 11.00000  0.15375   5.42
C010  1  0.99574  0.05740  0.96999 11.00000  0.06849   5.36
C011  1  0.94052  0.26695  0.67766 11.00000  0.09898   5.34
C012  1  0.54073 -0.12589  0.66678 11.00000  0.30237   5.33
C013  1  0.02584  0.85942  0.36231 11.00000  0.26408   5.29
N014  3  0.45008  0.59938  0.15707 11.00000  0.23843   5.18
C015  1  1.16325  0.06415  0.65188 11.00000  0.12567   5.10
C016  1  0.04083  0.92019  0.17722 11.00000  0.13666   5.04
C017  1  0.84717  0.26088  0.94702 11.00000  0.11722   4.99
C018  1  0.58760  0.50000  0.18554 10.50000  0.05751   4.95
C019  1  0.61144  0.00000  0.63180 10.50000  0.25920   4.92
C01A  1  0.83606  0.50000  0.80063 10.50000  0.20206   4.82
C01B  1  0.39162  0.76573  0.18947 11.00000  0.19550   4.78
C01C  1  0.38284  0.66357  0.32171 11.00000  0.21089   4.72
N01D  3  0.26828  0.58843  0.26002 11.00000  0.23240   4.71
HKLF 4
END
