TITL SP14R08_expF_1_3_expS_1_3_SP14R08_a.res in P2(1)/n
REM Old TITL SP14R08 in P2(1)/n
REM SHELXT solution in P2(1)/n: R1 0.399, Rweak 0.015, Alpha 0.021
REM <I/s>   1.986 for  107 systematic absences,  Orientation as input
REM Formula found by SHELXT:  C9 N O

CELL  0.71073   7.0200   9.2700  11.5600   90.000   97.670   90.000
ZERR   16.000   0.0014   0.0019   0.0023    0.000    0.030    0.000
LATT  1
SYMM 1/2-X, 1/2+Y, 1/2-Z
SFAC C H N O
UNIT 16 16 16 16
L.S. 10
BOND
LIST 6
FMAP 2
PLAN 20
N001  3  0.33747  0.07500  0.27651 11.00000  0.05409   6.67
C002  1  0.44867  0.44779  0.66066 11.00000  0.04801   6.32
C003  1  0.21792  0.26367  0.39088 11.00000  0.05924   6.24
C004  1  0.53948  0.17106  0.44181 11.00000  0.05976   6.18
C005  1  0.41188  0.35719  0.56206 11.00000  0.05229   6.12
C006  1  0.32411  0.51231  0.72025 11.00000  0.05646   5.84
O007  4  0.14428  0.50356  0.69156 11.00000  0.06763   5.81
C008  1  0.23910  0.35961  0.48508 11.00000  0.05495   5.79
C009  1  0.56055  0.26611  0.54088 11.00000  0.05592   5.77
C00A  1  0.36664  0.17100  0.37025 11.00000  0.05449   5.73
C00B  1  0.41284  0.59908  0.82310 11.00000  0.06317   5.26
HKLF 4
END
