TITL SP14R08_expF_0_6_expS_0_5_SP14R08_c.res in P2/m
REM Old TITL SP14R08 in P2(1)/n
REM SHELXT solution in P2/m: R1 0.329, Rweak 0.000, Alpha 0.005
REM <I/s>   0.000 for    0 systematic absences,  Orientation as input
REM Formula found by SHELXT:  N

CELL  0.71073   7.0200   9.2700  11.5600   90.000   97.670   90.000
ZERR   16.000   0.0014   0.0019   0.0023    0.000    0.030    0.000
LATT  1
SYMM -X, Y, -Z
SFAC C H N O
UNIT 16 16 16 16
L.S. 10
BOND
LIST 6
FMAP 2
PLAN 20
N001  3  0.50000  0.50000  0.50000 10.25000  0.00010   8.00
HKLF 4
END
