TITL SP14R08_expF_0_6_expS_1_1_SP14R08_a.res in Pn
REM Old TITL SP14R08 in P2(1)/n
REM SHELXT solution in Pn: R1 0.254, Rweak 0.203, Alpha 0.140
REM <I/s>   1.078 for  101 systematic absences,  Orientation as input
REM Formula found by SHELXT:  C9 N3 O8

CELL  0.71073   7.0200   9.2700  11.5600   90.000   97.670   90.000
ZERR   16.000   0.0014   0.0019   0.0023    0.000    0.030    0.000
LATT -1
SYMM 1/2+X, -Y, 1/2+Z
SFAC C H N O
UNIT 16 16 16 16
L.S. 10
BOND
LIST 6
FMAP 2
PLAN 20
N001  3  0.35153  0.60587  0.67985 11.00000  0.00010  11.79
O002  4  0.53609  0.51543  0.84783 11.00000  0.00010   9.84
O003  4  0.40736  0.24945  0.43078 11.00000  0.01332   9.14
O004  4  0.43760  0.33121  0.96958 11.00000  0.00438   9.11
C005  1  0.58492  0.26686  0.45980 11.00000  0.00866   8.84
O006  4  0.34943  0.84793  0.41994 11.00000  0.01463   8.29
O007  4  0.31447  0.70708  0.58013 11.00000  0.00851   8.21
C008  1  0.62727 -0.08233  0.11323 11.00000  0.00760   7.63
N009  3  0.80966  0.02077  0.27843 11.00000  0.02640   7.19
N00A  3  0.22066  0.41957  0.79195 11.00000  0.00274   6.89
O00B  4  0.70324  0.18970  0.40253 11.00000  0.04124   6.49
C00C  1  0.52644  0.60739  0.75259 11.00000  0.01654   5.70
C00D  1  0.44114  0.76048  0.51815 11.00000  0.01356   5.42
C00E  1  0.80678 -0.07271  0.17466 11.00000  0.03933   4.97
O00F  4  0.61212  0.76520  0.54866 11.00000  0.01529   4.94
C00G  1  0.50095  0.10963  0.21983 11.00000  0.01889   4.91
C00H  1  0.19034  0.50904  0.69751 11.00000  0.00626   4.58
C00I  1  0.38763  0.42407  0.87821 11.00000  0.02034   4.57
C00J  1  0.67447  0.35911  0.57320 11.00000  0.02162   4.54
O00K  4  0.61920 -0.19108  0.03042 11.00000  0.03977   4.24
HKLF 4
END
