TITL SP14R08_expF_0_8_expS_1_2_SP14R08_c.res in P2(1)
REM Old TITL SP14R08 in P2(1)/n
REM SHELXT solution in P2(1): R1 0.243, Rweak 0.063, Alpha 0.123
REM <I/s>   2.268 for    6 systematic absences,  Orientation as input
REM Formula found by SHELXT:  C14 N4 O4

CELL  0.71073   7.0200   9.2700  11.5600   90.000   97.670   90.000
ZERR   16.000   0.0014   0.0019   0.0023    0.000    0.030    0.000
LATT -1
SYMM -X, 1/2+Y, -Z
SFAC C H N O
UNIT 16 16 16 16
L.S. 10
BOND
LIST 6
FMAP 2
PLAN 20
O001  4  0.60107  0.75586  0.55692 11.00000  0.03110   7.95
O002  4  0.41695  0.33764  0.97664 11.00000  0.01588   7.78
N003  3  0.38600  0.43207  0.88183 11.00000  0.03461   7.43
N004  3  0.19192  0.52744  0.71250 11.00000  0.04306   6.74
C005  1  0.35053  0.61292  0.68760 11.00000  0.03593   6.67
N006  3  0.80220  0.30563  0.08784 11.00000  0.02521   6.58
N007  3  0.30191  0.70359  0.59145 11.00000  0.03002   6.53
C008  1  0.53412  0.51887  0.86142 11.00000  0.02774   6.25
C009  1  0.84346  0.15022 -0.07260 11.00000  0.02358   6.23
C00A  1  1.01047  0.40651  0.26532 11.00000  0.02573   6.22
C00B  1  0.92900  0.25016  0.03050 11.00000  0.02321   6.09
C00C  1  0.21965  0.42309  0.80119 11.00000  0.03668   6.06
C00D  1  0.43043  0.77307  0.53029 11.00000  0.02503   5.90
C00E  1  1.03082  0.49124  0.35818 11.00000  0.02584   5.69
C00F  1  0.70375  0.58186  0.30813 11.00000  0.02056   5.66
C00G  1  0.83020  0.40017  0.18883 11.00000  0.01393   4.81
C00H  1  0.50742  0.61772  0.76425 11.00000  0.02350   4.81
O00I  4  1.10182  0.24148  0.06053 11.00000  0.04106   4.54
C00J  1  0.34247  0.84978  0.42470 11.00000  0.03335   4.39
C00K  1  0.68856  0.49789  0.20675 11.00000  0.02258   4.38
O00L  4  0.90326  0.69906  0.45958 11.00000  0.07451   4.38
C00M  1  0.88217  0.59167  0.37910 11.00000  0.02334   4.07
HKLF 4
END
