TITL SP14R08_expF_1_4_expS_0_6_SP14R08_b.res in Pn
REM Old TITL SP14R08 in P2(1)/n
REM SHELXT solution in Pn: R1 0.230, Rweak 0.095, Alpha 0.048
REM <I/s>   1.204 for  101 systematic absences,  Orientation as input
REM Formula found by SHELXT:  C13 N4 O4

CELL  0.71073   7.0200   9.2700  11.5600   90.000   97.670   90.000
ZERR   16.000   0.0014   0.0019   0.0023    0.000    0.030    0.000
LATT -1
SYMM 1/2+X, -Y, 1/2+Z
SFAC C H N O
UNIT 16 16 16 16
L.S. 10
BOND
LIST 6
FMAP 2
PLAN 20
O001  4  0.46419  1.07233  0.55843 11.00000  0.04625   9.19
O002  4  0.24377  0.60631  0.48903 11.00000  0.00638   8.72
C003  1  0.68440  0.74226  0.28467 11.00000  0.01322   8.72
N004  3  0.59753  0.89135  0.44628 11.00000  0.03238   7.39
N005  3  0.56374  0.79433  0.34844 11.00000  0.01637   7.21
N006  3  0.40021  0.84601  0.82313 11.00000  0.02182   6.82
N007  3  0.43641  0.97689  0.46562 11.00000  0.02718   6.80
O008  4  0.85182  0.73973  0.30975 11.00000  0.02259   6.78
C009  1  0.21799  0.50259  0.39253 11.00000  0.02406   6.40
C00A  1  0.67728  1.17081  0.72669 11.00000  0.01577   6.26
C00B  1  0.34944  0.32266  0.28244 11.00000  0.01058   5.98
O00C  4  0.14818  0.75024  0.68994 11.00000  0.03851   5.83
C00D  1  0.45953  0.69220  0.66934 11.00000  0.01719   5.74
C00E  1  0.62074  1.07691  0.63081 11.00000  0.02517   5.69
C00F  1  0.78293  0.97969  0.61309 11.00000  0.01637   5.66
C00G  1  0.36062  0.41714  0.37143 11.00000  0.01622   5.47
C00H  1  0.55395  0.50462  0.54589 11.00000  0.02115   4.32
C00I  1  0.41877  0.60706  0.56841 11.00000  0.01713   4.24
C00J  1  0.58540  0.64461  0.17687 11.00000  0.03090   4.08
C00K  1  0.32623  0.77035  0.72634 11.00000  0.02539   3.29
C00L  1  0.54465  0.41439  0.44821 11.00000  0.02947   3.01
HKLF 4
END
