TITL SP14R08_expF_1_3_expS_0_9_SP14R08_a.res in P2(1)/n
REM Old TITL SP14R08 in P2(1)/n
REM SHELXT solution in P2(1)/n: R1 0.278, Rweak 0.033, Alpha 0.077
REM <I/s>   1.595 for  107 systematic absences,  Orientation as input
REM Formula found by SHELXT:  C10 O

CELL  0.71073   7.0200   9.2700  11.5600   90.000   97.670   90.000
ZERR   16.000   0.0014   0.0019   0.0023    0.000    0.030    0.000
LATT  1
SYMM 1/2-X, 1/2+Y, 1/2-Z
SFAC C H N O
UNIT 16 16 16 16
L.S. 10
BOND
LIST 6
FMAP 2
PLAN 20
C001  1  0.44868  0.55223  0.66007 11.00000  0.03040   6.45
C002  1  0.33804  0.92334  0.27818 11.00000  0.02723   6.35
O003  4  0.14896  0.49478  0.69126 11.00000  0.05224   6.15
C004  1  0.32010  0.48712  0.72119 11.00000  0.03371   6.12
C005  1  0.21772  0.73799  0.39031 11.00000  0.03485   6.07
C006  1  0.41223  0.64400  0.56154 11.00000  0.03339   5.98
C007  1  0.36713  0.83041  0.36967 11.00000  0.03527   5.94
C008  1  0.53659  0.82972  0.44409 11.00000  0.04021   5.75
C009  1  0.24080  0.64295  0.48573 11.00000  0.03407   5.70
C00A  1  0.55989  0.73481  0.53989 11.00000  0.03745   5.56
C00B  1  0.40853  0.39922  0.82348 11.00000  0.03811   5.40
HKLF 4
END
