TITL SP14R08_expF_1_5_expS_1_2_SP14R08_b.res in Pn
REM Old TITL SP14R08 in P2(1)/n
REM SHELXT solution in Pn: R1 0.409, Rweak 0.009, Alpha 0.003
REM <I/s>   2.123 for  101 systematic absences,  Orientation as input
REM Formula found by SHELXT:  C17 N2 O4

CELL  0.71073   7.0200   9.2700  11.5600   90.000   97.670   90.000
ZERR   16.000   0.0014   0.0019   0.0023    0.000    0.030    0.000
LATT -1
SYMM 1/2+X, -Y, 1/2+Z
SFAC C H N O
UNIT 16 16 16 16
L.S. 10
BOND
LIST 6
FMAP 2
PLAN 20
O001  4  0.15414  1.16940  0.72261 11.00000  0.09825   7.26
N002  3  0.27908  0.98319  0.60249 11.00000  0.09171   7.11
N003  3  0.07761  0.89080  0.43390 11.00000  0.09196   6.95
C004  1  1.05437  0.50854  0.53674 11.00000  0.06674   6.46
C005  1  1.02838  0.41979  0.43996 11.00000  0.07968   6.45
C006  1 -0.05009  1.08199  0.55241 11.00000  0.07933   6.38
C007  1  0.04936  0.80306  0.33925 11.00000  0.06331   6.36
O008  4  0.63076  0.75335  0.68980 11.00000  0.10406   6.31
C009  1  0.86124  0.41320  0.36602 11.00000  0.07238   6.20
C00A  1  0.82750  0.32331  0.27539 11.00000  0.06017   6.16
C00B  1  0.94395  0.70075  0.65899 11.00000  0.06704   6.14
C00C  1  0.16480  0.73748  0.28043 11.00000  0.07507   5.96
C00D  1  0.73306  0.60471  0.48421 11.00000  0.07152   5.73
C00E  1  0.24903  0.88940  0.51426 11.00000  0.07461   5.72
C00F  1  0.80799  0.76526  0.71791 11.00000  0.08283   5.59
C00G  1  0.71435  0.51073  0.38689 11.00000  0.08183   5.51
C00H  1  0.91032  0.60651  0.55827 11.00000  0.06950   5.41
C00I  1  0.08117  0.64289  0.17695 11.00000  0.08046   5.29
C00J  1 -0.05437  0.98269  0.45412 11.00000  0.08413   5.14
O00K  4  0.34201  0.74374  0.30685 11.00000  0.08109   5.07
C00L  1  0.13205  1.07847  0.62652 11.00000  0.07286   5.07
C00M  1  0.89289  0.84993  0.82305 11.00000  0.08517   5.04
O00N  4  0.40691  0.77693  0.47620 11.00000  0.37268   3.08
HKLF 4
END
