TITL SP14R08_expF_1_4_expS_1_4_SP14R08_a.res in P2(1)/n
REM Old TITL SP14R08 in P2(1)/n
REM SHELXT solution in P2(1)/n: R1 0.514, Rweak 0.035, Alpha 0.019
REM <I/s>   2.883 for  103 systematic absences,  Orientation as input
REM Formula found by SHELXT:  C7 N2 O2

CELL  0.71073   7.0200   9.2700  11.5600   90.000   97.670   90.000
ZERR   16.000   0.0014   0.0019   0.0023    0.000    0.030    0.000
LATT  1
SYMM 1/2-X, 1/2+Y, 1/2-Z
SFAC C H N O
UNIT 16 16 16 16
L.S. 10
BOND
LIST 6
FMAP 2
PLAN 20
O001  4  0.65855  0.07262  0.72548 11.00000  0.10353   7.54
N002  3  0.55592  0.44773  0.33877 11.00000  0.08250   6.62
N003  3  0.78081  0.26174  0.61144 11.00000  0.09726   6.61
C004  1  0.46298  0.16843  0.55587 11.00000  0.08227   5.95
C005  1  0.63024  0.17696  0.63241 11.00000  0.07300   5.87
C006  1  0.44722  0.26217  0.45820 11.00000  0.07534   5.85
C007  1  0.59277  0.34780  0.43540 11.00000  0.07417   5.81
C008  1  0.67911  0.50813  0.28455 11.00000  0.08199   5.69
C009  1  0.75919  0.35367  0.51395 11.00000  0.07331   5.61
O00A  4  0.84977  0.50298  0.30774 11.00000  0.09316   5.21
C00B  1  0.58937  0.61047  0.17556 11.00000  0.09591   4.61
HKLF 4
END
