TITL SP14R08_expF_1_4_expS_1_1_SP14R08_a.res in P2(1)/n
REM Old TITL SP14R08 in P2(1)/n
REM SHELXT solution in P2(1)/n: R1 0.393, Rweak 0.016, Alpha 0.029
REM <I/s>   1.765 for  107 systematic absences,  Orientation as input
REM Formula found by SHELXT:  C9 N O

CELL  0.71073   7.0200   9.2700  11.5600   90.000   97.670   90.000
ZERR   16.000   0.0014   0.0019   0.0023    0.000    0.030    0.000
LATT  1
SYMM 1/2-X, 1/2+Y, 1/2-Z
SFAC C H N O
UNIT 16 16 16 16
L.S. 10
BOND
LIST 6
FMAP 2
PLAN 20
N001  3  0.65997  0.92502  0.72234 11.00000  0.04088   6.60
C002  1  0.55127  0.55248  0.33963 11.00000  0.03428   6.34
C003  1  0.78273  0.73658  0.60794 11.00000  0.04286   6.19
C004  1  0.58794  0.64268  0.43705 11.00000  0.03741   6.04
C005  1  0.46355  0.82933  0.55636 11.00000  0.04699   6.04
C006  1  0.68133  0.48838  0.27957 11.00000  0.04165   5.91
O007  4  0.85348  0.49421  0.30808 11.00000  0.05564   5.90
C008  1  0.63172  0.83212  0.62976 11.00000  0.04250   5.74
C009  1  0.76094  0.64153  0.51462 11.00000  0.03956   5.74
C00A  1  0.44072  0.73437  0.45990 11.00000  0.04540   5.71
C00B  1  0.58902  0.39891  0.17638 11.00000  0.05023   5.28
HKLF 4
END
