TITL SP14R08_expF_0_8_expS_1_4_SP14R08_b.res in Pn
REM Old TITL SP14R08 in P2(1)/n
REM SHELXT solution in Pn: R1 0.248, Rweak 0.037, Alpha 0.034
REM <I/s>   1.472 for  101 systematic absences,  Orientation as input
REM Formula found by SHELXT:  C14 N3 O5

CELL  0.71073   7.0200   9.2700  11.5600   90.000   97.670   90.000
ZERR   16.000   0.0014   0.0019   0.0023    0.000    0.030    0.000
LATT -1
SYMM 1/2+X, -Y, 1/2+Z
SFAC C H N O
UNIT 16 16 16 16
L.S. 10
BOND
LIST 6
FMAP 2
PLAN 20
O001  4  0.16953  1.16720  0.72074 11.00000  0.02487   8.62
O002  4  0.65360  0.75829  0.68523 11.00000  0.03599   8.31
O003  4 -0.03181  1.07649  0.55127 11.00000  0.04288   7.78
N004  3  0.73899  0.60647  0.48460 11.00000  0.03492   7.23
N005  3  0.95156  0.69865  0.65417 11.00000  0.02865   7.09
N006  3  0.27576  0.98761  0.60382 11.00000  0.02916   7.06
C007  1  0.91539  0.85863  0.82360 11.00000  0.03543   6.43
C008  1  0.82127  0.76910  0.71587 11.00000  0.03022   6.26
C009  1  0.91824  0.60259  0.56299 11.00000  0.03899   6.23
C00A  1  0.05601  0.80070  0.33321 11.00000  0.03023   6.01
C00B  1 -0.06029  0.98314  0.45712 11.00000  0.03133   5.93
C00C  1  1.06029  0.51047  0.53943 11.00000  0.03511   5.89
C00D  1  0.13507  1.08145  0.62912 11.00000  0.02974   5.82
C00E  1  0.87047  0.41827  0.36798 11.00000  0.03185   5.75
C00F  1  0.17868  0.74234  0.27726 11.00000  0.02983   5.70
C00G  1  0.09071  0.89159  0.43821 11.00000  0.02033   5.67
C00H  1  0.70930  0.51357  0.38364 11.00000  0.04330   5.30
C00I  1  0.25742  0.89077  0.51407 11.00000  0.03427   4.77
C00J  1  0.09747  0.65650  0.17640 11.00000  0.03232   4.55
O00K  4  0.35972  0.74746  0.30225 11.00000  0.05408   4.22
C00L  1  1.04742  0.41623  0.43937 11.00000  0.05061   4.18
O00M  4  0.85365  0.31121  0.27987 11.00000  0.06935   4.04
HKLF 4
END
