TITL SP14R08_expF_1_2_expS_1_3_SP14R08_b.res in Pn
REM Old TITL SP14R08 in P2(1)/n
REM SHELXT solution in Pn: R1 0.347, Rweak 0.015, Alpha 0.007
REM <I/s>   1.823 for  101 systematic absences,  Orientation as input
REM Formula found by SHELXT:  C12 N8 O2

CELL  0.71073   7.0200   9.2700  11.5600   90.000   97.670   90.000
ZERR   16.000   0.0014   0.0019   0.0023    0.000    0.030    0.000
LATT -1
SYMM 1/2+X, -Y, 1/2+Z
SFAC C H N O
UNIT 16 16 16 16
L.S. 10
BOND
LIST 6
FMAP 2
PLAN 20
N001  3  0.58997  0.60434  0.43633 11.00000  0.04986   8.03
N002  3  0.55346  0.98073  0.53691 11.00000  0.06580   6.86
N003  3  0.66644  0.32614  0.72226 11.00000  0.04776   6.81
N004  3  0.36686  1.08493  0.36783 11.00000  0.05332   6.80
N005  3  0.46576  0.41827  0.55362 11.00000  0.04908   6.74
N006  3  0.34061  1.17382  0.27742 11.00000  0.04767   6.73
N007  3  0.78285  0.51055  0.60730 11.00000  0.05932   6.72
N008  3  0.44817  0.80133  0.65857 11.00000  0.05451   6.70
C009  1  0.67793  0.76521  0.28011 11.00000  0.04983   6.44
C00A  1  0.21921  0.98214  0.38964 11.00000  0.05068   6.21
C00B  1  0.24037  0.89466  0.48605 11.00000  0.04672   6.20
C00C  1  0.55528  0.69738  0.33986 11.00000  0.04341   6.15
C00D  1  0.54998  1.07837  0.43731 11.00000  0.07102   6.10
O00E  4  0.14581  0.74674  0.68909 11.00000  0.05620   6.03
O00F  4  0.85419  0.75744  0.30562 11.00000  0.06695   5.82
C00G  1  0.76438  0.60879  0.51748 11.00000  0.05154   5.58
C00H  1  0.41712  0.64615  0.82399 11.00000  0.06301   5.43
C00I  1  0.59806  0.84879  0.17601 11.00000  0.05215   5.41
C00J  1  0.32082  0.73845  0.72010 11.00000  0.05191   5.39
C00K  1  0.43634  0.51319  0.45745 11.00000  0.04875   4.98
C00L  1  0.63396  0.42405  0.62823 11.00000  0.05853   4.91
C00M  1  0.41377  0.89013  0.56250 11.00000  0.05572   4.58
HKLF 4
END
