TITL SP14R08_expF_0_8_expS_1_5_SP14R08_b.res in Pn
REM Old TITL SP14R08 in P2(1)/n
REM SHELXT solution in Pn: R1 0.258, Rweak 0.030, Alpha 0.013
REM <I/s>   1.583 for  101 systematic absences,  Orientation as input
REM Formula found by SHELXT:  C15 N3 O4

CELL  0.71073   7.0200   9.2700  11.5600   90.000   97.670   90.000
ZERR   16.000   0.0014   0.0019   0.0023    0.000    0.030    0.000
LATT -1
SYMM 1/2+X, -Y, 1/2+Z
SFAC C H N O
UNIT 16 16 16 16
L.S. 10
BOND
LIST 6
FMAP 2
PLAN 20
O001  4  0.54711 -0.08186  0.44969 11.00000  0.06049   8.20
O002  4  0.33654 -0.16874  0.28093 11.00000  0.02655   7.31
N003  3  0.56575  0.01479  0.54703 11.00000  0.04424   6.98
N004  3  0.77298  0.39391  0.52058 11.00000  0.03760   6.88
O005  4  0.85200  0.23927  0.31133 11.00000  0.05344   6.68
C006  1  0.42468  0.10227  0.56840 11.00000  0.03427   6.65
N007  3  0.33296  0.25786  0.72387 11.00000  0.04037   6.54
C008  1  0.78459  0.48679  0.61876 11.00000  0.04113   6.43
C009  1  0.44921  0.19875  0.66304 11.00000  0.02554   6.33
C00A  1  0.63446  0.58609  0.63347 11.00000  0.03341   6.29
C00B  1  0.59742  0.14866  0.17615 11.00000  0.04325   5.98
C00C  1  0.55398  0.30030  0.34244 11.00000  0.03288   5.97
C00D  1  0.22216  0.01155  0.39914 11.00000  0.02876   5.32
C00E  1  0.59826  0.39095  0.44423 11.00000  0.02995   5.03
C00F  1  0.65295  0.68401  0.72499 11.00000  0.04843   5.01
C00G  1  0.69098  0.23214  0.28354 11.00000  0.03469   5.00
O00H  4  0.14800  0.25142  0.69505 11.00000  0.04172   4.85
C00I  1  0.37064 -0.07879  0.37357 11.00000  0.03392   4.47
C00J  1  0.41237  0.34737  0.82385 11.00000  0.03525   4.37
C00K  1  0.25399  0.10649  0.49128 11.00000  0.03876   4.13
C00L  1  0.44728  0.48610  0.46662 11.00000  0.03772   3.73
C00M  1  0.47011  0.57754  0.55985 11.00000  0.04137   3.43
HKLF 4
END
