TITL SP14R08_expF_0_7_expS_1_5_SP14R08_c.res in P2(1)
REM Old TITL SP14R08 in P2(1)/n
REM SHELXT solution in P2(1): R1 0.247, Rweak 0.047, Alpha 0.123
REM <I/s>   1.900 for    6 systematic absences,  Orientation as input
REM Formula found by SHELXT:  C15 N3 O4

CELL  0.71073   7.0200   9.2700  11.5600   90.000   97.670   90.000
ZERR   16.000   0.0014   0.0019   0.0023    0.000    0.030    0.000
LATT -1
SYMM -X, 1/2+Y, -Z
SFAC C H N O
UNIT 16 16 16 16
L.S. 10
BOND
LIST 6
FMAP 2
PLAN 20
O001  4  0.30544  0.30401  0.58762 11.00000  0.04097   7.73
O002  4  0.71160  0.43028  0.30471 11.00000  0.03269   7.64
N003  3  0.50870  0.39732  0.76463 11.00000  0.03535   7.44
O004  4  1.10490  0.76299  0.05849 11.00000  0.02879   7.03
N005  3  0.91153  0.32827  0.47220 11.00000  0.02726   7.03
N006  3  0.83190  0.61567  0.18791 11.00000  0.02858   6.89
C007  1  0.42635  0.24422  0.52549 11.00000  0.02678   6.57
C008  1  0.83661  0.85126 -0.07653 11.00000  0.02783   6.49
C009  1  1.03291  0.51436  0.36054 11.00000  0.03335   6.31
C00A  1  0.52921  0.48647  0.86009 11.00000  0.02781   6.24
C00B  1  0.87985  0.42002  0.37947 11.00000  0.02618   6.16
C00C  1  0.18918  0.50006  0.70847 11.00000  0.02515   6.05
C00D  1  0.93165  0.76778  0.03470 11.00000  0.02422   5.90
C00E  1  0.38532  0.58060  0.88131 11.00000  0.03061   5.87
C00F  1  0.41568  0.67514  0.97182 11.00000  0.02617   5.87
O00G  4  0.59686  0.25108  0.55930 11.00000  0.05939   5.74
C00H  1  0.69064  0.52894  0.20972 11.00000  0.03342   5.73
C00I  1  0.79815  0.70067  0.09220 11.00000  0.02417   5.61
C00J  1  0.34470  0.40414  0.68747 11.00000  0.03366   5.60
C00K  1  0.34844  0.14874  0.43071 11.00000  0.03288   4.57
C00L  1  0.21651  0.59863  0.80782 11.00000  0.06768   4.22
C00M  1  1.00916  0.60993  0.26353 11.00000  0.03082   3.93
HKLF 4
END
