TITL SP14R08_expF_1_4_expS_1_5_SP14R08_a.res in P2(1)/n
REM Old TITL SP14R08 in P2(1)/n
REM SHELXT solution in P2(1)/n: R1 0.621, Rweak 0.064, Alpha 0.068
REM <I/s>   2.601 for  107 systematic absences,  Orientation as input
REM Formula found by SHELXT:  C7 N4 O3

CELL  0.71073   7.0200   9.2700  11.5600   90.000   97.670   90.000
ZERR   16.000   0.0014   0.0019   0.0023    0.000    0.030    0.000
LATT  1
SYMM 1/2-X, 1/2+Y, 1/2-Z
SFAC C H N O
UNIT 16 16 16 16
L.S. 10
BOND
LIST 6
FMAP 2
PLAN 20
O001  4  0.33428  0.07433  0.27439 11.00000  0.07698   7.65
C002  1  0.41175  0.34860  0.56449 11.00000  0.06284   7.38
N003  3  0.21877  0.25952  0.39134 11.00000  0.06750   7.17
C004  1  0.36147  0.16769  0.37046 11.00000  0.06666   7.15
N005  3  0.45263  0.44731  0.66109 11.00000  0.06617   7.07
N006  3  0.56132  0.26055  0.54407 11.00000  0.06981   6.53
N007  3  0.53324  0.17116  0.43990 11.00000  0.07879   6.51
C008  1  0.31922  0.51071  0.71928 11.00000  0.07603   6.35
C009  1  0.24506  0.35553  0.48799 11.00000  0.06270   6.32
O00A  4  0.14812  0.50975  0.69753 11.00000  0.09057   6.15
C00B  1  0.40822  0.59515  0.82130 11.00000  0.08462   4.77
C00C  1 -0.03333  0.17854  0.40386 11.00000  0.16539   3.27
C00D  1  0.01483  0.52694  0.57026 11.00000  0.17715   3.24
O00E  4  0.54255  0.66316  0.71469 11.00000  0.27585   3.18
HKLF 4
END
