TITL SP14R08_expF_1_4_expS_0_9_SP14R08_a.res in P2(1)/n
REM Old TITL SP14R08 in P2(1)/n
REM SHELXT solution in P2(1)/n: R1 0.295, Rweak 0.026, Alpha 0.047
REM <I/s>   1.706 for  107 systematic absences,  Orientation as input
REM Formula found by SHELXT:  C10 O

CELL  0.71073   7.0200   9.2700  11.5600   90.000   97.670   90.000
ZERR   16.000   0.0014   0.0019   0.0023    0.000    0.030    0.000
LATT  1
SYMM 1/2-X, 1/2+Y, 1/2-Z
SFAC C H N O
UNIT 16 16 16 16
L.S. 10
BOND
LIST 6
FMAP 2
PLAN 20
C001  1  0.55133  0.44769  0.33968 11.00000  0.03211   6.33
C002  1  0.66184  0.07590  0.72187 11.00000  0.02780   6.31
C003  1  0.78210  0.26356  0.60881 11.00000  0.03752   6.24
O004  4  0.85175  0.50660  0.30863 11.00000  0.05471   6.13
C005  1  0.58826  0.35581  0.43878 11.00000  0.03575   6.02
C006  1  0.46281  0.17090  0.55612 11.00000  0.04212   6.01
C007  1  0.67963  0.51272  0.27914 11.00000  0.03632   5.91
C008  1  0.44138  0.26415  0.46063 11.00000  0.04119   5.77
C009  1  0.75931  0.35614  0.51429 11.00000  0.03683   5.72
C00A  1  0.63222  0.16994  0.63008 11.00000  0.03734   5.71
C00B  1  0.59187  0.59984  0.17704 11.00000  0.04246   5.40
HKLF 4
END
