TITL SP14R08_expF_1_5_expS_1_5_SP14R08_b.res in P2(1)/n
REM Old TITL SP14R08 in P2(1)/n
REM SHELXT solution in P2(1)/n: R1 0.989, Rweak 0.328, Alpha 0.080
REM <I/s>   3.622 for  107 systematic absences,  Orientation as input
REM Formula found by SHELXT:  C14 N6 O2

CELL  0.71073   7.0200   9.2700  11.5600   90.000   97.670   90.000
ZERR   16.000   0.0014   0.0019   0.0023    0.000    0.030    0.000
LATT  1
SYMM 1/2-X, 1/2+Y, 1/2-Z
SFAC C H N O
UNIT 16 16 16 16
L.S. 10
BOND
LIST 6
FMAP 2
PLAN 20
O001  4  0.39083  0.64659  0.75604 11.00000  0.16734   8.74
N002  3  1.00000  0.50000  0.50000 11.00000  0.26925   8.38
O003  4  1.05984  0.39736  0.51450 11.00000  0.36647   8.22
N004  3  0.62200  0.35339  0.76332 11.00000  0.52920   8.04
N005  3  1.09245  0.52271  0.51794 11.00000  0.28080   7.93
N006  3  0.38270  0.54667  0.67461 11.00000  0.00216   7.75
N007  3  0.72026  0.20229  0.62068 11.00000  0.00222   7.60
C008  1  0.58685  0.31616  0.79625 11.00000  0.49146   7.15
N009  3  0.70680  0.28065  0.88594 11.00000  0.01921   7.03
C00A  1  0.54119  0.55914  0.77772 11.00000  0.06145   5.45
C00B  1  0.62563  0.37619  0.87408 11.00000  0.46537   4.51
C00C  1  0.72584  0.11443  0.68206 11.00000  0.02783   4.29
C00D  1  0.10563  0.47349  0.73948 11.00000  0.00384   3.96
C00E  1  0.43192  0.47688  0.56218 11.00000  0.00969   3.82
C00F  1  0.31348  0.66706  0.83006 11.00000  0.03056   3.61
C00G  1  0.41267  0.48612  0.68120 11.00000  0.00674   3.51
C00H  1  0.84431  0.27316  0.46175 11.00000  0.06499   3.50
C00I  1  0.48903  0.21286  0.46731 11.00000  0.03798   3.46
C00J  1  0.59606  0.17454  0.57738 11.00000  0.00953   3.34
C00K  1  0.66633  0.35381  0.73843 11.00000  0.50206   3.30
C00L  1  0.64508  0.48605  0.88417 11.00000  0.31281   3.26
C00M  1  0.70702  0.19799  0.68272 11.00000  0.07526   3.25
HKLF 4
END
