TITL SP14R08_expF_1_3_expS_0_8_SP14R08_a.res in P2(1)/n
REM Old TITL SP14R08 in P2(1)/n
REM SHELXT solution in P2(1)/n: R1 0.270, Rweak 0.049, Alpha 0.101
REM <I/s>   1.414 for  107 systematic absences,  Orientation as input
REM Formula found by SHELXT:  C10 O

CELL  0.71073   7.0200   9.2700  11.5600   90.000   97.670   90.000
ZERR   16.000   0.0014   0.0019   0.0023    0.000    0.030    0.000
LATT  1
SYMM 1/2-X, 1/2+Y, 1/2-Z
SFAC C H N O
UNIT 16 16 16 16
L.S. 10
BOND
LIST 6
FMAP 2
PLAN 20
C001  1  0.44925  0.44917  0.66051 11.00000  0.02327   6.45
C002  1  0.33653  0.07522  0.27842 11.00000  0.02253   6.23
O003  4  0.14913  0.50545  0.69174 11.00000  0.04365   6.19
C004  1  0.32073  0.51254  0.72133 11.00000  0.02633   6.14
C005  1  0.21796  0.26331  0.39049 11.00000  0.02866   6.05
C006  1  0.41270  0.35642  0.56184 11.00000  0.02759   5.99
C007  1  0.36699  0.17065  0.36984 11.00000  0.02835   5.94
C008  1  0.24149  0.35688  0.48544 11.00000  0.02772   5.72
C009  1  0.53756  0.17035  0.44438 11.00000  0.03205   5.71
C00A  1  0.56112  0.26440  0.54068 11.00000  0.03050   5.50
C00B  1  0.40818  0.60059  0.82334 11.00000  0.02987   5.35
HKLF 4
END
