TITL SP14R08_expF_0_8_expS_1_1_SP14R08_a.res in P2(1)/n
REM Old TITL SP14R08 in P2(1)/n
REM SHELXT solution in P2(1)/n: R1 0.277, Rweak 0.099, Alpha 0.143
REM <I/s>   1.280 for  107 systematic absences,  Orientation as input
REM Formula found by SHELXT:  C9 N O

CELL  0.71073   7.0200   9.2700  11.5600   90.000   97.670   90.000
ZERR   16.000   0.0014   0.0019   0.0023    0.000    0.030    0.000
LATT  1
SYMM 1/2-X, 1/2+Y, 1/2-Z
SFAC C H N O
UNIT 16 16 16 16
L.S. 10
BOND
LIST 6
FMAP 2
PLAN 20
N001  3  0.55116  0.44957  0.33881 11.00000  0.02412   6.51
O002  4  0.85050  0.50648  0.30874 11.00000  0.03235   6.28
C003  1  0.67928  0.51214  0.27901 11.00000  0.01806   6.19
C004  1  0.66511  0.07402  0.72172 11.00000  0.01494   6.01
C005  1  0.58823  0.35715  0.43832 11.00000  0.02071   5.95
C006  1  0.63269  0.17116  0.63002 11.00000  0.02131   5.92
C007  1  0.78196  0.26408  0.61036 11.00000  0.02023   5.86
C008  1  0.75891  0.35727  0.51490 11.00000  0.02028   5.57
C009  1  0.59216  0.60082  0.17682 11.00000  0.02081   5.47
C00A  1  0.46053  0.17116  0.55520 11.00000  0.02481   5.43
C00B  1  0.43867  0.26443  0.45920 11.00000  0.02274   5.42
HKLF 4
END
