TITL SP14R08_expF_0_9_expS_1_3_SP14R08_a.res in P2(1)/n
REM Old TITL SP14R08 in P2(1)/n
REM SHELXT solution in P2(1)/n: R1 0.278, Rweak 0.033, Alpha 0.043
REM <I/s>   1.589 for  107 systematic absences,  Orientation as input
REM Formula found by SHELXT:  C10 O

CELL  0.71073   7.0200   9.2700  11.5600   90.000   97.670   90.000
ZERR   16.000   0.0014   0.0019   0.0023    0.000    0.030    0.000
LATT  1
SYMM 1/2-X, 1/2+Y, 1/2-Z
SFAC C H N O
UNIT 16 16 16 16
L.S. 10
BOND
LIST 6
FMAP 2
PLAN 20
C001  1  0.55112  0.55188  0.33990 11.00000  0.03024   6.39
C002  1  0.66212  0.92358  0.72180 11.00000  0.02677   6.33
O003  4  0.85121  0.49467  0.30879 11.00000  0.05225   6.11
C004  1  0.67964  0.48730  0.27900 11.00000  0.03328   6.10
C005  1  0.78225  0.73802  0.60999 11.00000  0.03453   6.08
C006  1  0.58769  0.64416  0.43857 11.00000  0.03294   6.06
C007  1  0.63331  0.83050  0.63042 11.00000  0.03471   5.85
C008  1  0.46373  0.82965  0.55616 11.00000  0.03925   5.80
C009  1  0.75923  0.64277  0.51441 11.00000  0.03401   5.71
C00A  1  0.43989  0.73517  0.46003 11.00000  0.03728   5.59
C00B  1  0.59154  0.39979  0.17660 11.00000  0.03760   5.37
HKLF 4
END
