TITL SP14R08_expF_0_5_expS_1_3_SP14R08_b.res in P2(1)
REM Old TITL SP14R08 in P2(1)/n
REM SHELXT solution in P2(1): R1 0.268, Rweak 0.227, Alpha 0.274
REM <I/s>   1.590 for    6 systematic absences,  Orientation as input
REM Formula found by SHELXT:  C11 N3 O7

CELL  0.71073   7.0200   9.2700  11.5600   90.000   97.670   90.000
ZERR   16.000   0.0014   0.0019   0.0023    0.000    0.030    0.000
LATT -1
SYMM -X, 1/2+Y, -Z
SFAC C H N O
UNIT 16 16 16 16
L.S. 10
BOND
LIST 6
FMAP 2
PLAN 20
O001  4  0.50887  0.60838  0.76590 11.00000  0.00010   8.98
C002  1  0.93461  0.24005  0.03276 11.00000  0.00221   8.51
O003  4  1.02837  0.48088  0.35368 11.00000  0.06438   8.45
O004  4  0.79419  0.29612  0.08777 11.00000  0.02524   7.73
N005  3  0.87867  0.57142  0.37888 11.00000  0.00368   7.61
O006  4  0.91868  0.69481  0.46870 11.00000  0.01922   7.30
O007  4  1.09491  0.24502  0.05662 11.00000  0.01824   6.85
N008  3  0.20447  0.43029  0.80704 11.00000  0.02143   6.83
N009  3  0.84050  0.40586  0.18522 11.00000  0.01830   6.78
C00A  1  0.19207  0.52295  0.70859 11.00000  0.01668   6.45
O00B  4  0.60980  0.76252  0.56458 11.00000  0.01601   6.40
C00C  1  0.84639  0.15103 -0.06718 11.00000  0.00010   6.33
C00D  1  0.33981  0.62256  0.69162 11.00000  0.00606   5.87
C00E  1  0.30992  0.69939  0.59053 11.00000  0.00397   5.86
C00F  1  0.53038  0.51657  0.86262 11.00000  0.00010   5.46
O00G  4  0.41465  0.34014  0.97731 11.00000  0.02017   5.40
C00H  1  0.68687  0.49279  0.21158 11.00000  0.00867   5.13
C00I  1  0.33529  0.84897  0.41974 11.00000  0.02166   5.08
C00J  1  0.70933  0.58809  0.29996 11.00000  0.01723   4.95
C00K  1  0.42234  0.76956  0.52598 11.00000  0.01611   4.72
C00L  1  0.39328  0.40413  0.88026 11.00000  0.01589   4.65
HKLF 4
END
