TITL SP14R08_expF_1_1_expS_1_5_SP14R08_b.res in Pn
REM Old TITL SP14R08 in P2(1)/n
REM SHELXT solution in Pn: R1 0.374, Rweak 0.014, Alpha 0.005
REM <I/s>   1.990 for  101 systematic absences,  Orientation as input
REM Formula found by SHELXT:  C16 N4 O3

CELL  0.71073   7.0200   9.2700  11.5600   90.000   97.670   90.000
ZERR   16.000   0.0014   0.0019   0.0023    0.000    0.030    0.000
LATT -1
SYMM 1/2+X, -Y, 1/2+Z
SFAC C H N O
UNIT 16 16 16 16
L.S. 10
BOND
LIST 6
FMAP 2
PLAN 20
N001  3  0.69442  0.29381  0.41076 11.00000  0.05966   7.10
C002  1  0.49355  0.38967  0.23355 11.00000  0.05658   6.82
N003  3  0.20929  1.08188  0.80558 11.00000  0.07946   6.65
N004  3  0.58801  0.66981  0.02778 11.00000  0.05705   6.59
N005  3  0.41220  1.17648  0.97222 11.00000  0.05548   6.54
C006  1  0.57144  0.23722  0.47087 11.00000  0.05887   6.39
C007  1  0.47016  0.48093  0.14361 11.00000  0.06537   6.30
C008  1  0.66365  0.39128  0.31437 11.00000  0.05249   6.29
C009  1  0.53698  0.99218  0.86086 11.00000  0.05729   6.20
C00A  1  0.80765  0.47925  0.29190 11.00000  0.06271   5.94
C00B  1  0.33398  0.89717  0.69018 11.00000  0.05807   5.78
C00C  1  0.61287  0.57758  0.11962 11.00000  0.05710   5.76
O00D  4  0.39801  0.24236  0.44230 11.00000  0.06647   5.76
O00E  4  0.60836  0.74271  0.55801 11.00000  0.07499   5.74
C00F  1  0.79042  0.57678  0.19546 11.00000  0.05846   5.70
C00G  1  0.19235  0.98525  0.71202 11.00000  0.06117   5.60
C00H  1  0.38231  1.08725  0.87988 11.00000  0.05982   5.55
C00I  1  0.65094  0.15132  0.57402 11.00000  0.06006   5.55
C00J  1  0.30050  0.80444  0.59005 11.00000  0.05114   5.28
C00K  1  0.33439  0.64703  0.42685 11.00000  0.06774   4.91
C00L  1  0.42550  0.73704  0.53408 11.00000  0.05956   4.85
C00M  1  0.51853  0.89935  0.76818 11.00000  0.05717   4.56
O00N  4  0.39637  0.37406  0.29356 11.00000  0.50424   3.25
HKLF 4
END
