TITL SP14R08_expF_1_2_expS_1_2_SP14R08_a.res in P2(1)/n
REM Old TITL SP14R08 in P2(1)/n
REM SHELXT solution in P2(1)/n: R1 0.345, Rweak 0.018, Alpha 0.039
REM <I/s>   1.753 for  107 systematic absences,  Orientation as input
REM Formula found by SHELXT:  C9 N O

CELL  0.71073   7.0200   9.2700  11.5600   90.000   97.670   90.000
ZERR   16.000   0.0014   0.0019   0.0023    0.000    0.030    0.000
LATT  1
SYMM 1/2-X, 1/2+Y, 1/2-Z
SFAC C H N O
UNIT 16 16 16 16
L.S. 10
BOND
LIST 6
FMAP 2
PLAN 20
N001  3  0.33965  0.07429  0.27831 11.00000  0.03946   6.51
C002  1  0.44772  0.44871  0.66007 11.00000  0.03434   6.36
C003  1  0.21773  0.26214  0.39183 11.00000  0.04059   6.12
C004  1  0.41189  0.35692  0.56252 11.00000  0.03772   6.02
C005  1  0.32112  0.51171  0.72059 11.00000  0.04086   6.00
C006  1  0.53740  0.17031  0.44454 11.00000  0.04297   5.99
O007  4  0.14674  0.50580  0.69112 11.00000  0.05312   5.93
C008  1  0.36785  0.16881  0.37010 11.00000  0.03820   5.78
C009  1  0.23907  0.35673  0.48599 11.00000  0.03789   5.74
C00A  1  0.55818  0.26535  0.53995 11.00000  0.04350   5.65
C00B  1  0.41023  0.59987  0.82389 11.00000  0.04623   5.30
HKLF 4
END
