TITL SP14R08_expF_0_6_expS_1_4_SP14R08_c.res in Pn
REM Old TITL SP14R08 in P2(1)/n
REM SHELXT solution in Pn: R1 0.245, Rweak 0.104, Alpha 0.084
REM <I/s>   1.198 for  101 systematic absences,  Orientation as input
REM Formula found by SHELXT:  C8 N3 O9

CELL  0.71073   7.0200   9.2700  11.5600   90.000   97.670   90.000
ZERR   16.000   0.0014   0.0019   0.0023    0.000    0.030    0.000
LATT -1
SYMM 1/2+X, -Y, 1/2+Z
SFAC C H N O
UNIT 16 16 16 16
L.S. 10
BOND
LIST 6
FMAP 2
PLAN 20
C001  1  0.18211  0.76298  0.23199 11.00000  0.00010  10.19
O002  4  0.17234  0.32381  0.67196 11.00000  0.02043   9.41
O003  4  0.91338  0.65046  0.77457 11.00000  0.00775   9.30
O004  4  0.73851  0.89226  0.43212 11.00000  0.01730   8.92
O005  4  0.65359  0.74659  0.64473 11.00000  0.02680   8.56
O006  4 -0.02642  0.41814  0.50486 11.00000  0.03884   8.14
O007  4 -0.06010  0.51922  0.41132 11.00000  0.02810   7.86
O008  4  0.96318  0.79798  0.61285 11.00000  0.02886   7.82
O009  4  0.28426  0.51508  0.56306 11.00000  0.01893   7.64
N00A  3  0.86425  1.07499  0.31938 11.00000  0.01496   7.56
N00B  3  0.92088  0.88679  0.51408 11.00000  0.02076   7.39
N00C  3  0.06543  0.69669  0.29230 11.00000  0.02204   7.12
C00D  1  0.72033  0.99387  0.34427 11.00000  0.03883   6.17
C00E  1  0.09795  0.59809  0.39096 11.00000  0.01754   5.79
O00F  4  0.35754  0.75989  0.26298 11.00000  0.02150   5.67
C00G  1  0.12558  0.41193  0.58055 11.00000  0.02270   5.24
C00H  1  1.06010  0.99022  0.49184 11.00000  0.01967   4.71
C00I  1  1.04787  1.07478  0.39589 11.00000  0.02070   4.63
C00J  1  0.25496  0.60835  0.46125 11.00000  0.03490   4.48
C00K  1  0.84491  1.16984  0.22543 11.00000  0.01621   4.36
HKLF 4
END
