TITL SP14R08_expF_1_1_expS_1_4_SP14R08_b.res in Pn
REM Old TITL SP14R08 in P2(1)/n
REM SHELXT solution in Pn: R1 0.358, Rweak 0.015, Alpha 0.011
REM <I/s>   1.804 for  101 systematic absences,  Orientation as input
REM Formula found by SHELXT:  C17 N3 O2

CELL  0.71073   7.0200   9.2700  11.5600   90.000   97.670   90.000
ZERR   16.000   0.0014   0.0019   0.0023    0.000    0.030    0.000
LATT -1
SYMM 1/2+X, -Y, 1/2+Z
SFAC C H N O
UNIT 16 16 16 16
L.S. 10
BOND
LIST 6
FMAP 2
PLAN 20
N001  3  0.33722  1.17177  0.27734 11.00000  0.04506   7.13
N002  3  0.53960  1.07505  0.43716 11.00000  0.06870   6.96
O003  4  0.85336  0.75943  0.30605 11.00000  0.05412   6.87
N004  3  0.45573  0.79943  0.66175 11.00000  0.04873   6.65
C005  1  0.21843  0.98389  0.38800 11.00000  0.05243   6.39
C006  1  0.41622  0.88988  0.56313 11.00000  0.04594   6.34
C007  1  0.56013  0.98093  0.53763 11.00000  0.04553   6.12
C008  1  0.31621  0.73668  0.72211 11.00000  0.05206   6.12
C009  1  0.78212  0.51145  0.60667 11.00000  0.04879   5.95
C00A  1  0.76349  0.60737  0.51591 11.00000  0.05636   5.92
C00B  1  0.66269  0.32502  0.72250 11.00000  0.04265   5.89
C00C  1  0.58913  0.60146  0.43922 11.00000  0.04504   5.80
C00D  1  0.63045  0.42118  0.62866 11.00000  0.05462   5.75
C00E  1  0.56152  0.69513  0.34219 11.00000  0.04230   5.70
C00F  1  0.36471  1.08346  0.36787 11.00000  0.04651   5.54
C00G  1  0.67764  0.76274  0.28453 11.00000  0.04859   5.40
C00H  1  0.24033  0.89175  0.48449 11.00000  0.04156   5.35
C00I  1  0.58367  0.84811  0.17589 11.00000  0.05700   5.33
C00J  1  0.44360  0.51149  0.45814 11.00000  0.06360   5.27
C00K  1  0.46049  0.41642  0.55248 11.00000  0.04848   5.26
C00L  1  0.40289  0.64927  0.82411 11.00000  0.05249   5.14
O00M  4  0.14664  0.74576  0.68948 11.00000  0.07195   4.68
HKLF 4
END
