TITL SP14R08_expF_0_5_expS_1_3_SP14R08_a.res in Pn
REM Old TITL SP14R08 in P2(1)/n
REM SHELXT solution in Pn: R1 0.252, Rweak 0.204, Alpha 0.137
REM <I/s>   1.071 for  101 systematic absences,  Orientation as input
REM Formula found by SHELXT:  C9 N2 O9

CELL  0.71073   7.0200   9.2700  11.5600   90.000   97.670   90.000
ZERR   16.000   0.0014   0.0019   0.0023    0.000    0.030    0.000
LATT -1
SYMM 1/2+X, -Y, 1/2+Z
SFAC C H N O
UNIT 16 16 16 16
L.S. 10
BOND
LIST 6
FMAP 2
PLAN 20
O001  4  0.37267  0.26002  0.31218 11.00000  0.00010  10.49
O002  4 -0.03974  0.01582  0.46128 11.00000  0.00078   9.58
O003  4  0.92953  0.39323  0.56322 11.00000  0.00010   8.92
O004  4  0.06217  0.19446  0.33757 11.00000  0.02177   8.60
O005  4  1.04972  0.57156  0.44887 11.00000  0.01004   8.04
O006  4  0.10875  0.35959  0.17645 11.00000  0.02487   7.54
O007  4  0.26819  0.10372  0.51976 11.00000  0.02482   7.54
N008  3  0.85485  0.67483  0.27979 11.00000  0.00850   7.19
N009  3  0.31230  0.00930  0.61882 11.00000  0.01753   6.77
C00A  1  0.83651  0.24435  0.72446 11.00000  0.00126   6.61
C00B  1  0.73908  0.48271  0.39732 11.00000  0.00647   6.42
C00C  1  0.16200 -0.08550  0.64036 11.00000  0.01145   6.39
C00D  1  0.19415  0.27393  0.28701 11.00000  0.00821   5.85
O00E  4  0.18589 -0.17040  0.72480 11.00000  0.02817   5.68
C00F  1  0.88918  0.57926  0.37521 11.00000  0.01034   5.21
C00G  1  0.75508  0.39126  0.49208 11.00000  0.01024   4.49
C00H  1 -0.04972 -0.09645  0.55764 11.00000  0.03644   4.30
C00I  1  0.96045  0.29460  0.65836 11.00000  0.00114   4.18
C00J  1  0.92726  0.15687  0.82355 11.00000  0.01244   4.04
O00K  4  0.67518  0.24948  0.68796 11.00000  0.06263   3.10
HKLF 4
END
