TITL SP14R08_expF_0_9_expS_0_6_SP14R08_a.res in Pn
REM Old TITL SP14R08 in P2(1)/n
REM SHELXT solution in Pn: R1 0.255, Rweak 0.308, Alpha 0.229
REM <I/s>   1.046 for   97 systematic absences,  Orientation as input
REM Formula found by SHELXT:  C13 N3 O7

CELL  0.71073   7.0200   9.2700  11.5600   90.000   97.670   90.000
ZERR   16.000   0.0014   0.0019   0.0023    0.000    0.030    0.000
LATT -1
SYMM 1/2+X, -Y, 1/2+Z
SFAC C H N O
UNIT 16 16 16 16
L.S. 10
BOND
LIST 6
FMAP 2
PLAN 20
C001  1  0.30343  0.24178  0.69246 11.00000  0.00010   9.52
O002  4  0.23599  0.40121  0.45488 11.00000  0.00493   9.42
O003  4  0.44891  0.01478  0.43180 11.00000  0.00290   8.88
C004  1  0.38268  0.56304  0.34417 11.00000  0.02802   8.71
O005  4  0.41408  0.38967  0.53290 11.00000  0.00010   8.05
O006  4  0.42263 -0.08961  0.50231 11.00000  0.09727   7.60
N007  3  0.45312  0.29088  0.63081 11.00000  0.00957   7.10
O008  4  0.66528 -0.16912  0.69840 11.00000  0.01625   6.95
N009  3  0.21875  0.49212  0.35894 11.00000  0.00010   6.88
N00A  3  0.85303  0.26451  0.28094 11.00000  0.00010   6.84
O00B  4  0.14697  0.25044  0.65870 11.00000  0.02178   6.74
C00C  1  0.60168  0.35028  0.16118 11.00000  0.00010   6.48
C00D  1  0.55019  0.19402  0.31118 11.00000  0.00010   6.28
C00E  1  0.33170  0.68723  0.25762 11.00000  0.00010   5.23
C00F  1  0.78082  0.01664  0.57864 11.00000  0.01550   5.17
C00G  1  0.42172  0.15191  0.80465 11.00000  0.00010   5.01
O00H  4  0.53187  0.57253  0.41125 11.00000  0.00267   3.95
C00I  1  0.66239  0.27239  0.25705 11.00000  0.00010   3.86
C00J  1  0.60414  0.06545  0.42357 11.00000  0.09058   3.70
C00K  1  0.64239 -0.08475  0.60386 11.00000  0.00072   3.46
C00L  1  0.57830  0.28713  0.46457 11.00000  0.11906   3.27
C00M  1  0.57502 -0.09625  0.83882 11.00000  0.08625   3.13
C00N  1  0.74831  0.13275  0.48072 11.00000  0.02120   3.06
HKLF 4
END
