TITL 0620_expF_1_2_expS_0_9_0620_b.res in I-4
REM Old TITL 0620 in I4(1)/a
REM SHELXT solution in I-4: R1 0.354, Rweak 0.090, Alpha 0.145
REM <I/s>   0.000 for    0 systematic absences,  Orientation as input
REM Flack x = -9.990 ( 9.990 ) from   112 Parsons' quotients
REM Formula found by SHELXT:  C61 N45 O4

CELL  0.71073  26.6550  26.6550   7.5900   90.000   90.000   90.000
ZERR  108.000   0.0038   0.0038   0.0015    0.000    0.000    0.000
LATT -2
SYMM -X, -Y, Z
SYMM Y, -X, -Z
SYMM -Y, X, -Z
SFAC C H N O
UNIT 108 108 108 108
L.S. 10
BOND
LIST 6
FMAP 2
PLAN 20
N001  3  0.45170  0.37860 -0.26131 11.00000  0.19076  11.70
N002  3  0.46446  0.42159 -0.43557 11.00000  0.16893  10.38
N003  3  0.53291  0.41654 -0.11445 11.00000  0.18138   9.63
N004  3  0.49561  0.37850 -0.12078 11.00000  0.21421   7.87
N005  3  0.50000  0.00000  1.25000 10.25000  0.16180   7.65
N006  3  0.48993  0.45905 -0.37848 11.00000  0.14317   7.58
N007  3  0.52800  0.25450  0.52971 11.00000  0.18833   7.13
N008  3  0.47921  0.23998  0.17349 11.00000  0.21893   6.93
N009  3  0.50502  0.12319  0.88520 11.00000  0.21572   6.91
C00A  1  0.49677  0.04360  1.11524 11.00000  0.12608   6.89
N00B  3  0.50993  0.28991  0.23317 11.00000  0.18936   6.86
N00C  3  0.53732  0.08097  1.12457 11.00000  0.18503   6.84
N00D  3  0.45985  0.04160  0.97800 11.00000  0.15434   6.61
C00E  1  0.52826  0.44573 -0.24658 11.00000  0.12760   6.59
C00F  1  0.47990  0.20850  0.31880 11.00000  0.14594   6.35
C00G  1  0.47446  0.09078  0.84322 11.00000  0.15215   6.24
C00H  1  0.45238  0.24884  0.02546 11.00000  0.17419   6.23
C00I  1  0.52082  0.16543  0.78662 11.00000  0.20560   6.17
C00J  1  0.45876  0.40622 -0.36170 11.00000  0.15075   5.98
C00K  1  0.48692  0.38448 -0.23141 11.00000  0.27622   5.76
C00L  1  0.50466  0.16277  0.63498 11.00000  0.27533   5.76
C00M  1  0.47183  0.14060  0.53193 11.00000  0.22314   5.61
O00N  4  0.54147  0.26192  0.70716 11.00000  0.25247   4.62
C00O  1  0.52686  0.29626  0.38801 11.00000  0.18048   4.58
C00P  1  0.54496  0.12489  1.00018 11.00000  0.15033   4.52
C00Q  1  0.48878  0.32403  0.00924 11.00000  0.16175   4.11
C00R  1  0.50000  0.50000 -0.50000 10.25000  0.12043   4.08
C00S  1  0.51185  0.32905  0.13510 11.00000  0.22233   3.79
C00T  1  0.50654  0.20729  0.47861 11.00000  0.18316   3.19
HKLF 4
END
