TITL 0620_expF_1_4_expS_0_9_0620_a.res in I-4
REM Old TITL 0620 in I4(1)/a
REM SHELXT solution in I-4: R1 0.442, Rweak 0.075, Alpha 0.170
REM <I/s>   0.000 for    0 systematic absences,  Orientation as input
REM Flack x = -9.990 ( 9.990 ) from    84 Parsons' quotients
REM Formula found by SHELXT:  C73 N41 O16

CELL  0.71073  26.6550  26.6550   7.5900   90.000   90.000   90.000
ZERR  108.000   0.0038   0.0038   0.0015    0.000    0.000    0.000
LATT -2
SYMM -X, -Y, Z
SYMM Y, -X, -Z
SYMM -Y, X, -Z
SFAC C H N O
UNIT 108 108 108 108
L.S. 10
BOND
LIST 6
FMAP 2
PLAN 20
N001  3  0.12540  0.44855 -0.02722 11.00000  0.23819  10.22
N002  3  0.08666  0.45929 -0.18671 11.00000  0.16357  10.05
N003  3  0.09118  0.52025  0.12269 11.00000  0.26554   9.95
O004  4  0.45393  0.45867  1.22747 11.00000  0.22746   8.70
N005  3  0.50000  0.50000  1.50000 10.25000  0.12715   8.55
N006  3  0.13028  0.48186  0.08780 11.00000  0.28081   8.29
N007  3  0.04897  0.49325 -0.12634 11.00000  0.17049   7.81
N008  3  0.20422  0.50815  0.46652 11.00000  0.23667   7.59
N009  3  0.24582  0.52251  0.79197 11.00000  0.19167   7.36
C00A  1  0.41005  0.47569  1.09868 11.00000  0.15717   7.32
N00B  3  0.09748  0.46708 -0.08447 11.00000  0.23801   6.85
N00C  3  0.29203  0.47787  0.56649 11.00000  0.17107   6.72
C00D  1  0.42011  0.53890  1.37696 11.00000  0.12228   6.30
C00E  1  0.46195  0.50750  1.37494 11.00000  0.14561   6.30
C00F  1  0.37769  0.51114  1.12920 11.00000  0.14318   5.99
C00G  1  0.25972  0.48485  0.42448 11.00000  0.16094   5.91
C00H  1  0.38137  0.54463  1.24942 11.00000  0.12304   5.62
C00I  1  0.21472  0.51897  0.66050 11.00000  0.19153   5.56
C00J  1  0.33139  0.51622  1.00462 11.00000  0.22150   5.53
C00K  1  0.17301  0.48773  0.21831 11.00000  0.20982   5.48
C00L  1  0.16508  0.50433  0.34152 11.00000  0.22249   5.38
C00M  1  0.25787  0.45499  0.28373 11.00000  0.16764   5.37
C00N  1  0.37687  0.46309  0.78301 11.00000  0.21851   5.31
C00O  1  0.34100  0.49148  0.83836 11.00000  0.17658   5.12
C00P  1  0.05731  0.52648 -0.00556 11.00000  0.16638   4.74
C00Q  1  0.29240  0.49734  0.72441 11.00000  0.23022   4.63
O00R  4  0.24755  0.53493  0.95787 11.00000  0.27785   4.28
O00S  4  0.08933  0.54022  0.13114 11.00000  0.34656   4.17
C00T  1  0.00000  0.50000 -0.25000 10.25000  0.24573   4.15
N00U  3  0.22218  0.35087 -0.25724 11.00000  0.25910   3.68
C00V  1  0.37402  0.44424  0.60555 11.00000  0.29260   3.57
C00W  1  0.32416  0.46090  0.48997 11.00000  0.22285   3.26
O00X  4  0.40909  0.45962  0.95948 11.00000  0.40965   3.23
C00Y  1  0.23109  0.50577  0.52507 11.00000  0.23436   3.17
HKLF 4
END
