TITL 0620_expF_0_9_expS_1_4_0620_a.res in I4(1)
REM Old TITL 0620 in I4(1)/a
REM SHELXT solution in I4(1): R1 0.424, Rweak 0.133, Alpha 0.218
REM <I/s>   0.000 for    0 systematic absences,  Orientation as input
REM Flack x = -9.990 ( 9.990 ) from    84 Parsons' quotients
REM Formula found by SHELXT:  C39 N20 O8

CELL  0.71073  26.6550  26.6550   7.5900   90.000   90.000   90.000
ZERR  108.000   0.0038   0.0038   0.0015    0.000    0.000    0.000
LATT -2
SYMM 1/2-X, 1/2-Y, 1/2+Z
SYMM -Y, 1/2+X, 1/4+Z
SYMM 1/2+Y, -X, 3/4+Z
SFAC C H N O
UNIT 108 108 108 108
L.S. 10
BOND
LIST 6
FMAP 2
PLAN 20
N001  3  0.53185  0.12210  0.21659 11.00000  0.26635   9.80
C002  1  0.41458 -0.02894 -0.43801 11.00000  0.14837   9.56
N003  3  0.44974 -0.03525 -0.32774 11.00000  0.16719   9.46
N004  3  0.51160  0.12798  0.32199 11.00000  0.24724   9.22
O005  4  0.47842  0.09046  0.33073 11.00000  0.24138   8.19
N006  3  0.53883  0.08848  0.04101 11.00000  0.17546   7.82
N007  3  0.41681  0.03776 -0.16193 11.00000  0.17765   7.82
N008  3  0.45238 -0.00059 -0.18095 11.00000  0.20128   7.77
N009  3  0.47919  0.24474  0.98285 11.00000  0.23607   7.23
C00A  1  0.52859  0.25505  0.64570 11.00000  0.17190   7.22
C00B  1  0.38645  0.05000 -0.29328 11.00000  0.17364   7.18
N00C  3  0.37588  0.00253 -0.41811 11.00000  0.20444   6.82
O00D  4  0.55299  0.24784  0.48701 11.00000  0.27803   6.64
C00E  1  0.47147  0.20442  0.89274 11.00000  0.21555   6.48
C00F  1  0.50769  0.04043  0.06098 11.00000  0.13460   6.43
N00G  3  0.34753 -0.02479 -0.72778 11.00000  0.29981   6.36
C00H  1  0.50000  0.00000 -0.05058 10.50000  0.13780   6.35
C00I  1  0.50355  0.20810  0.67700 11.00000  0.21346   6.04
C00J  1  0.51268  0.16815  0.44688 11.00000  0.17971   5.75
C00K  1  0.50259  0.29235  0.95441 11.00000  0.19994   5.55
C00L  1  0.33276  0.01040 -0.57050 11.00000  0.23948   5.45
C00M  1  0.51627  0.29147  0.78189 11.00000  0.22134   5.05
C00N  1  0.49848  0.15663  0.58879 11.00000  0.19713   4.98
C00O  1  0.54410  0.12213  0.16108 11.00000  0.19079   4.50
C00P  1  0.46944  0.05287  0.17743 11.00000  0.15685   4.12
O00Q  4  0.46314  0.23389  1.15337 11.00000  0.24980   4.10
O00R  4  0.65035  0.28643  1.05798 11.00000  0.55836   3.70
N00S  3  0.35860  0.28357  1.72778 11.00000  0.39802   3.68
C00T  1  0.35496  0.16808  1.34371 11.00000  0.34615   3.67
C00U  1  0.27024  0.21340  1.31784 11.00000  0.40363   3.62
C00V  1  0.60488  0.16516  0.73134 11.00000  0.29911   3.35
C00W  1  0.35407  0.21024  1.51618 11.00000  0.30824   3.34
C00X  1  0.48061  0.21820  0.78021 11.00000  0.27362   3.33
C00Y  1  0.69315  0.19943  0.85869 11.00000  0.36058   3.28
HKLF 4
END
