TITL 0620_expF_1_3_expS_0_9_0620_a.res in I-4
REM Old TITL 0620 in I4(1)/a
REM SHELXT solution in I-4: R1 0.382, Rweak 0.047, Alpha 0.205
REM <I/s>   0.000 for    0 systematic absences,  Orientation as input
REM Flack x = -1.781 ( 9.990 ) from    97 Parsons' quotients
REM Formula found by SHELXT:  C77 N53 O16

CELL  0.71073  26.6550  26.6550   7.5900   90.000   90.000   90.000
ZERR  108.000   0.0038   0.0038   0.0015    0.000    0.000    0.000
LATT -2
SYMM -X, -Y, Z
SYMM Y, -X, -Z
SYMM -Y, X, -Z
SFAC C H N O
UNIT 108 108 108 108
L.S. 10
BOND
LIST 6
FMAP 2
PLAN 20
N001  3  0.62213  0.45596  1.25161 11.00000  0.20726  11.25
N002  3  0.91006  0.47304  0.13155 11.00000  0.16129   9.54
N003  3  0.59180  0.52403  1.10591 11.00000  0.18347   9.31
N004  3  0.58721  0.46246  1.39564 11.00000  0.18538   9.28
N005  3  1.00000  0.50000 -0.25000 10.25000  0.16965   8.99
N006  3  0.62535  0.48715  1.13006 11.00000  0.21522   8.91
N007  3  0.54597  0.50282  1.37456 11.00000  0.16720   8.47
N008  3  0.75835  0.47648  0.80774 11.00000  0.18014   8.45
N009  3  0.71036  0.50983  0.73033 11.00000  0.21210   8.27
O00A  4  0.91499  0.53957 -0.13940 11.00000  0.17687   8.06
C00B  1  0.54720  0.53160  1.23411 11.00000  0.13799   7.06
N00C  3  0.65494  0.50649  0.87666 11.00000  0.28112   6.92
O00D  4  0.94380  0.46356  0.00961 11.00000  0.20652   6.86
N00E  3  0.78986  0.47512  0.67239 11.00000  0.21587   6.77
C00F  1  0.70164  0.53501  0.57540 11.00000  0.20240   6.73
C00G  1  0.96285  0.51039 -0.11942 11.00000  0.11059   6.56
C00H  1  0.60147  0.52188  1.27646 11.00000  0.27634   6.47
C00I  1  0.74760  0.52654  0.45695 11.00000  0.17629   6.06
C00J  1  0.67589  0.48177  1.02530 11.00000  0.19748   5.83
N00K  3  0.87794  0.50947  0.09106 11.00000  0.19337   5.68
C00L  1  0.50000  0.50000  1.50000 10.25000  0.10181   5.45
C00M  1  0.65644  0.19355  0.33016 11.00000  0.39656   5.40
C00N  1  0.88249  0.54018 -0.02217 11.00000  0.10777   5.36
C00O  1  0.73656  0.54054  0.29619 11.00000  0.16427   5.06
C00P  1  0.84012  0.51048  0.24928 11.00000  0.21236   5.02
O00Q  4  0.90475  0.44824  0.20787 11.00000  0.44912   4.86
N00R  3  0.70218  0.21212  0.56722 11.00000  0.39330   4.61
C00S  1  0.62453  0.53383  0.75794 11.00000  0.23761   4.52
C00T  1  0.74962  0.45484  0.97097 11.00000  0.22191   4.52
C00U  1  0.79186  0.50634  0.50724 11.00000  0.14894   4.31
C00V  1  0.81950  0.49996  0.37064 11.00000  0.22146   4.03
C00W  1  0.71185  0.51178  0.57493 11.00000  0.26647   3.80
C00X  1  0.63390  0.29243  0.99892 11.00000  0.31874   3.53
C00Y  1  0.66225  0.36262  0.86727 11.00000  0.40294   3.22
O00Z  4  0.67400  0.39923  0.62334 11.00000  0.33873   3.20
C010  1  0.65095  0.30562  0.81290 11.00000  0.33710   3.12
N011  3  0.71809  0.14659  0.90520 11.00000  0.36505   3.08
C012  1  0.84573  0.49355  0.45702 11.00000  0.23107   3.07
HKLF 4
END
