TITL 0620_expF_1_1_expS_1_3_0620_a.res in I4(1)
REM Old TITL 0620 in I4(1)/a
REM SHELXT solution in I4(1): R1 0.535, Rweak 0.040, Alpha 0.177
REM <I/s>   0.000 for    0 systematic absences,  Orientation as input
REM Flack x = -9.990 ( 9.990 ) from    65 Parsons' quotients
REM Formula found by SHELXT:  C37 N16 O14

CELL  0.71073  26.6550  26.6550   7.5900   90.000   90.000   90.000
ZERR  108.000   0.0038   0.0038   0.0015    0.000    0.000    0.000
LATT -2
SYMM 1/2-X, 1/2-Y, 1/2+Z
SYMM -Y, 1/2+X, 1/4+Z
SYMM 1/2+Y, -X, 3/4+Z
SFAC C H N O
UNIT 108 108 108 108
L.S. 10
BOND
LIST 6
FMAP 2
PLAN 20
O001  4  1.03780  0.61950  0.99649 11.00000  0.22038  10.98
N002  3  0.90444  0.47938  0.36155 11.00000  0.20019  10.80
N003  3  0.87116  0.51488  0.41368 11.00000  0.24102   9.02
N004  3  0.75528  0.47950 -0.27758 11.00000  0.19930   8.94
O005  4  1.03859  0.58588  0.87277 11.00000  0.24160   8.76
N006  3  0.78506  0.48158 -0.13804 11.00000  0.19904   8.07
N007  3  1.00570  0.62150  1.12607 11.00000  0.23197   7.38
N008  3  0.91562  0.53785  0.65844 11.00000  0.15879   7.27
C009  1  1.00000  0.50000  0.73830 10.50000  0.15735   7.23
C00A  1  0.95798  0.50596  0.62730 11.00000  0.14804   6.95
N00B  3  1.00490  0.54387  0.88007 11.00000  0.19840   6.95
N00C  3  0.95453  0.46210  0.48326 11.00000  0.19677   6.79
C00D  1  0.96856  0.58196  1.12683 11.00000  0.13726   6.67
C00E  1  0.71970  0.51805 -0.22728 11.00000  0.31447   6.00
O00F  4  0.74973  0.45557 -0.45748 11.00000  0.28554   5.91
C00G  1  0.83361  0.51366  0.27277 11.00000  0.15495   5.91
C00H  1  0.79332  0.49331  0.01649 11.00000  0.18822   5.82
C00I  1  0.88299  0.55449  0.54055 11.00000  0.17242   5.80
C00J  1  0.73994  0.51674  0.04214 11.00000  0.23056   5.56
C00K  1  0.99103  0.67491  1.30708 11.00000  0.34002   5.44
C00L  1  0.83786  0.49868  0.12105 11.00000  0.19927   5.40
C00M  1  0.97143  0.55614  0.99586 11.00000  0.15346   5.28
C00N  1  0.96120  0.62600  1.45748 11.00000  0.28607   5.27
O00O  4  0.73542  0.54023  0.21520 11.00000  0.35078   5.26
C00P  1  0.84824  0.41327  0.33323 11.00000  0.26432   4.62
O00Q  4  0.84417  0.45328 -0.19928 11.00000  0.38282   4.52
C00R  1  0.70376  0.52746 -0.04014 11.00000  0.25357   4.34
C00S  1  0.80607  0.36110  0.36567 11.00000  0.33401   4.31
C00T  1  0.74748  0.35961  0.04789 11.00000  0.31414   4.20
C00U  1  0.85444  0.35479  0.43985 11.00000  0.32882   3.94
O00V  4  0.95951  0.59216  1.25246 11.00000  0.37032   3.88
C00W  1  0.71744  0.34411 -0.03279 11.00000  0.20033   3.67
O00X  4  0.77776  0.36546  0.21572 11.00000  0.38940   3.57
C00Y  1  0.88496  0.33461  0.58770 11.00000  0.26456   3.13
HKLF 4
END
