TITL 0620_expF_1_1_expS_1_1_0620_a.res in I4(1)
REM Old TITL 0620 in I4(1)/a
REM SHELXT solution in I4(1): R1 0.424, Rweak 0.191, Alpha 0.197
REM <I/s>   0.000 for    0 systematic absences,  Orientation as input
REM Flack x = -9.990 ( 9.990 ) from    95 Parsons' quotients
REM Formula found by SHELXT:  C37 N18 O10

CELL  0.71073  26.6550  26.6550   7.5900   90.000   90.000   90.000
ZERR  108.000   0.0038   0.0038   0.0015    0.000    0.000    0.000
LATT -2
SYMM 1/2-X, 1/2-Y, 1/2+Z
SYMM -Y, 1/2+X, 1/4+Z
SYMM 1/2+Y, -X, 3/4+Z
SFAC C H N O
UNIT 108 108 108 108
L.S. 10
BOND
LIST 6
FMAP 2
PLAN 20
N001  3  0.46884  0.58980 -0.25144 11.00000  0.16096  11.07
N002  3  0.53868  0.49086  0.27276 11.00000  0.18538   8.60
N003  3  0.50014  0.62242 -0.23531 11.00000  0.20226   8.49
O004  4  0.58361  0.45472  0.25288 11.00000  0.17543   7.81
C005  1  0.61885  0.45368  0.37110 11.00000  0.14683   7.74
N006  3  0.75999  0.46545  0.84497 11.00000  0.17244   7.50
C007  1  0.50000  0.50000  0.17341 10.50000  0.11997   7.42
N008  3  0.47081  0.54437 -0.11253 11.00000  0.15206   7.19
N009  3  0.55236  0.61937 -0.06702 11.00000  0.22964   6.82
N00A  3  0.55769  0.53742  0.40314 11.00000  0.19655   6.79
C00B  1  0.79343  0.46804  0.99715 11.00000  0.17873   6.11
C00C  1  0.52353  0.61690 -0.13376 11.00000  0.19359   6.10
C00D  1  0.49622  0.54707  0.00653 11.00000  0.12849   5.83
C00E  1  0.50948  0.66879 -0.35137 11.00000  0.21939   5.74
C00F  1  0.53319  0.58450  0.03589 11.00000  0.11874   5.73
C00G  1  0.66590  0.50133  0.78944 11.00000  0.18178   5.68
C00H  1  0.59005  0.52842  0.53667 11.00000  0.14633   5.64
C00I  1  0.62342  0.49359  0.51025 11.00000  0.18342   5.53
C00J  1  0.74210  0.51509  1.18060 11.00000  0.14631   5.45
C00K  1  0.66693  0.47790  0.64252 11.00000  0.19070   5.11
O00L  4  0.76236  0.45509  0.66725 11.00000  0.26182   4.78
O00M  4  0.62777  0.52247  0.88235 11.00000  0.37808   4.77
O00N  4  0.73939  0.54496  1.35137 11.00000  0.26179   4.77
C00O  1  0.79056  0.48766  1.15430 11.00000  0.14868   4.69
O00P  4  0.63211  0.45962  0.42989 11.00000  0.39809   4.46
C00Q  1  0.71061  0.48740  0.90666 11.00000  0.18564   4.42
C00R  1  0.70836  0.52176  1.07434 11.00000  0.15868   3.95
N00S  3  0.51622  0.53383  0.07162 11.00000  0.24063   3.63
C00T  1  0.66857  0.37678  0.95654 11.00000  0.30632   3.51
C00U  1  0.64447  0.31138  0.72993 11.00000  0.38821   3.31
C00V  1  0.66816  0.38926  0.83047 11.00000  0.33855   3.15
N00W  3  0.67002  0.41993  1.01691 11.00000  0.33951   3.13
C00X  1  0.71980  0.36182  1.12614 11.00000  0.35480   3.10
HKLF 4
END
