TITL 0620_expF_1_3_expS_1_1_0620_b.res in I4(1)
REM Old TITL 0620 in I4(1)/a
REM SHELXT solution in I4(1): R1 0.561, Rweak 0.050, Alpha 0.158
REM <I/s>   0.000 for    0 systematic absences,  Orientation as input
REM Flack x = -9.990 ( 9.990 ) from    63 Parsons' quotients
REM Formula found by SHELXT:  C42 N13 O10

CELL  0.71073  26.6550  26.6550   7.5900   90.000   90.000   90.000
ZERR  108.000   0.0038   0.0038   0.0015    0.000    0.000    0.000
LATT -2
SYMM 1/2-X, 1/2-Y, 1/2+Z
SYMM -Y, 1/2+X, 1/4+Z
SYMM 1/2+Y, -X, 3/4+Z
SFAC C H N O
UNIT 108 108 108 108
L.S. 10
BOND
LIST 6
FMAP 2
PLAN 20
N001  3  0.47510  0.09086  0.05767 11.00000  0.20495   9.97
N002  3  0.50934  0.12661  0.02671 11.00000  0.21125   8.50
O003  4  0.54323  0.11262 -0.10225 11.00000  0.23478   8.42
C004  1  0.52241  0.25841  0.37569 11.00000  0.18086   7.98
O005  4  0.53250  0.08073 -0.22765 11.00000  0.21229   7.96
C006  1  0.49513  0.20792  0.41067 11.00000  0.16205   7.44
N007  3  0.47716  0.21123  0.56668 11.00000  0.26689   7.37
N008  3  0.52588  0.40919  1.03843 11.00000  0.21221   7.27
N009  3  0.45180  0.38229  1.18917 11.00000  0.20150   7.17
N00A  3  0.45361  0.41664  1.32365 11.00000  0.16244   6.89
C00B  1  0.49372  0.45410  1.29956 11.00000  0.17151   6.87
C00C  1  0.50587  0.03282 -0.20165 11.00000  0.14110   6.87
N00D  3  0.50000  0.00000 -0.32365 10.50000  0.16540   6.85
C00E  1  0.49026  0.37313  1.06605 11.00000  0.19938   6.24
C00F  1  0.47774  0.05532 -0.09656 11.00000  0.19111   6.15
C00G  1  0.51837  0.16612  0.14678 11.00000  0.18110   5.87
C00H  1  0.47957  0.24493  0.71041 11.00000  0.21519   5.80
O00I  4  0.44546  0.10088  0.19916 11.00000  0.55644   5.55
C00J  1  0.49173  0.32979  0.83824 11.00000  0.25892   5.46
C00K  1  0.53834  0.45030  1.15224 11.00000  0.16698   5.43
C00L  1  0.50046  0.33643  0.96777 11.00000  0.25459   5.01
C00M  1  0.53892  0.26214  0.19860 11.00000  0.18104   4.79
C00N  1  0.52316  0.29419  0.50065 11.00000  0.16649   4.71
C00O  1  0.45244  0.25994  0.91973 11.00000  0.27155   4.40
C00P  1  0.49793  0.28981  0.67337 11.00000  0.18358   4.32
C00Q  1  0.50356  0.17919  0.26198 11.00000  0.24371   4.17
O00R  4  0.36686  0.16103  0.06040 11.00000  0.43169   4.10
O00S  4  0.50850  0.34503  0.72239 11.00000  0.37511   4.03
C00T  1  0.33923  0.16922 -0.08751 11.00000  0.36689   3.84
C00U  1  0.28137  0.14877 -0.30485 11.00000  0.23395   3.69
C00V  1  0.26453  0.17092 -0.19715 11.00000  0.34821   3.57
C00W  1  0.46344  0.15085  0.34939 11.00000  0.29488   3.31
C00X  1  0.32587  0.13201 -0.16471 11.00000  0.24869   3.31
HKLF 4
END
