TITL 0620_expF_1_5_expS_0_9_0620_a.res in I-4
REM Old TITL 0620 in I4(1)/a
REM SHELXT solution in I-4: R1 0.579, Rweak 0.289, Alpha 0.244
REM <I/s>   0.000 for    0 systematic absences,  Orientation as input
REM Flack x = -0.330 ( 1.958 ) from    70 Parsons' quotients
REM Formula found by SHELXT:  C65 N16 O28 Cl5

CELL  0.71073  26.6550  26.6550   7.5900   90.000   90.000   90.000
ZERR  108.000   0.0038   0.0038   0.0015    0.000    0.000    0.000
LATT -2
SYMM -X, -Y, Z
SYMM Y, -X, -Z
SYMM -Y, X, -Z
SFAC C H N O CL
UNIT 108 108 108 108 0
L.S. 10
BOND
LIST 6
FMAP 2
PLAN 20
CL01  5  0.50000  1.00000  1.25000 10.25000  0.25484  22.36
CL02  5  0.48624  0.96614  1.14896 11.00000  0.27151  16.77
O003  4  0.44955  0.88525  1.02416 11.00000  0.17123  11.56
O004  4  0.51089  0.92107  0.84033 11.00000  0.28482  10.67
N005  3  0.49396  0.88111  0.89838 11.00000  0.17790  10.51
O006  4  0.46365  0.91429  1.13124 11.00000  0.23017   9.79
O007  4  0.51445  0.76012  0.20925 11.00000  0.18194   9.67
C008  1  0.50491  0.79579  0.50056 11.00000  0.08844   8.65
C009  1  0.50960  0.78734  0.35799 11.00000  0.13638   7.48
O00A  4  0.46340  0.82789  0.74740 11.00000  0.21809   7.15
N00B  3  0.50453  0.62135 -0.12779 11.00000  0.18009   6.52
C00C  1  0.50000  0.50000 -0.50000 10.25000  0.12906   6.19
C00D  1  0.50375  0.67777  0.04449 11.00000  0.25635   5.65
C00E  1  0.56487  0.80685  0.69804 11.00000  0.15503   5.63
C00F  1  0.52931  0.58051 -0.40391 11.00000  0.16578   5.55
C00G  1  0.49291  0.55205 -0.34075 11.00000  0.17310   5.33
C00H  1  0.51688  0.96316  0.68727 11.00000  0.26566   4.90
C00I  1  0.37607  0.88483  0.15752 11.00000  0.25189   4.70
C00J  1  0.53044  0.65131 -0.23632 11.00000  0.21538   4.39
C00K  1  0.37128  0.90302  0.30922 11.00000  0.19858   4.37
C00L  1  0.42503  0.86153  0.31099 11.00000  0.20448   4.30
C00M  1  0.35479  0.87755  0.26717 11.00000  0.17859   4.10
O00N  4  0.51325  0.81869  0.64872 11.00000  0.25344   4.04
C00O  1  0.37293  0.85837  0.42433 11.00000  0.22783   3.56
O00P  4  0.45612  0.80429  0.18542 11.00000  0.28702   3.56
C00Q  1  0.47500  0.52225 -0.16146 11.00000  0.19664   3.48
C00R  1  0.37139  0.89765  0.55062 11.00000  0.22063   3.35
N00S  3  0.35473  0.70988  0.23461 11.00000  0.33483   3.10
C00T  1  0.58106  0.67374  0.37312 11.00000  0.35207   3.01
N00U  3  0.32926  0.70586  0.33497 11.00000  0.44507   3.00
HKLF 4
END
