TITL 0620_expF_0_7_expS_1_4_0620_a.res in I4(1)
REM Old TITL 0620 in I4(1)/a
REM SHELXT solution in I4(1): R1 0.320, Rweak 0.079, Alpha 0.242
REM <I/s>   0.000 for    0 systematic absences,  Orientation as input
REM Flack x = -9.990 ( 9.990 ) from   128 Parsons' quotients
REM Formula found by SHELXT:  C25 N26 O10

CELL  0.71073  26.6550  26.6550   7.5900   90.000   90.000   90.000
ZERR  108.000   0.0038   0.0038   0.0015    0.000    0.000    0.000
LATT -2
SYMM 1/2-X, 1/2-Y, 1/2+Z
SYMM -Y, 1/2+X, 1/4+Z
SYMM 1/2+Y, -X, 3/4+Z
SFAC C H N O
UNIT 108 108 108 108
L.S. 10
BOND
LIST 6
FMAP 2
PLAN 20
N001  3  0.58210  0.46204  0.41111 11.00000  0.11210  12.28
N002  3  0.53203  0.42099 -0.09184 11.00000  0.25341  11.51
O003  4  0.53124  0.45206  0.03779 11.00000  0.16379  10.67
N004  3  0.58660  0.53181  0.66578 11.00000  0.12782   9.81
N005  3  0.48937  0.37853 -0.05126 11.00000  0.17474   9.79
N006  3  0.54195  0.49173  0.41590 11.00000  0.13556   9.71
N007  3  0.61733  0.45819  0.53277 11.00000  0.18675   9.44
N008  3  0.75820  0.46867  1.01278 11.00000  0.14617   8.97
N009  3  0.49868  0.45712  0.16319 11.00000  0.12736   8.23
O00A  4  0.45816  0.37919  0.06556 11.00000  0.17512   7.74
C00B  1  0.62615  0.49660  0.65762 11.00000  0.15503   7.44
N00C  3  0.71088  0.49987  1.05008 11.00000  0.15926   7.40
N00D  3  0.78157  0.47707  1.19433 11.00000  0.24910   7.27
C00E  1  0.74988  0.51247  1.33432 11.00000  0.14581   7.02
C00F  1  0.54780  0.53581  0.54418 11.00000  0.12326   6.96
N00G  3  0.66373  0.48703  0.79373 11.00000  0.20790   6.78
O00H  4  0.75904  0.45691  0.84068 11.00000  0.27895   5.89
C00I  1  0.65879  0.49990  0.93646 11.00000  0.13739   5.81
C00J  1  0.50000  0.50000  0.28783 10.50000  0.12430   5.81
N00K  3  0.52046  0.39848 -0.12895 11.00000  0.17886   5.27
C00L  1  0.48244  0.32842 -0.19059 11.00000  0.16753   5.05
C00M  1  0.70629  0.52605  1.22262 11.00000  0.10643   5.05
C00N  1  0.52629  0.33196 -0.32947 11.00000  0.21913   4.71
O00O  4  0.74330  0.54089  1.49738 11.00000  0.23604   4.66
O00P  4  0.59530  0.56731  0.83298 11.00000  0.39663   4.40
C00Q  1  0.63562  0.52512  1.04524 11.00000  0.17563   4.16
C00R  1  0.46197  0.41481  0.19517 11.00000  0.13144   3.81
C00S  1  0.86628  0.46273  1.09495 11.00000  0.21714   3.69
C00T  1  0.64451  0.20738 -0.49738 11.00000  0.23324   3.54
N00U  3  0.65595  0.66123  0.59571 11.00000  0.38127   3.45
C00V  1  0.64546  0.30859 -0.18576 11.00000  0.23607   3.05
HKLF 4
END
