TITL 0620_expF_0_9_expS_1_5_0620_b.res in I4(1)
REM Old TITL 0620 in I4(1)/a
REM SHELXT solution in I4(1): R1 0.517, Rweak 0.128, Alpha 0.210
REM <I/s>   0.000 for    0 systematic absences,  Orientation as input
REM Flack x = -9.990 ( 9.990 ) from    70 Parsons' quotients
REM Formula found by SHELXT:  C26 N29 O6

CELL  0.71073  26.6550  26.6550   7.5900   90.000   90.000   90.000
ZERR  108.000   0.0038   0.0038   0.0015    0.000    0.000    0.000
LATT -2
SYMM 1/2-X, 1/2-Y, 1/2+Z
SYMM -Y, 1/2+X, 1/4+Z
SYMM 1/2+Y, -X, 3/4+Z
SFAC C H N O
UNIT 108 108 108 108
L.S. 10
BOND
LIST 6
FMAP 2
PLAN 20
N001  3  0.53031  0.90926  0.07483 11.00000  0.18329  12.59
N002  3  0.49335  0.87852  0.04205 11.00000  0.19947  11.97
N003  3  0.45992  0.88051 -0.09167 11.00000  0.15052  10.49
N004  3  0.46670  0.91605 -0.22921 11.00000  0.13533   9.88
N005  3  0.53341  0.92815 -0.02606 11.00000  0.23918   9.50
N006  3  0.50153  0.78458  0.42820 11.00000  0.22574   8.91
N007  3  0.54158  0.58651  1.31318 11.00000  0.17921   8.84
N008  3  0.50825  0.53947  1.27825 11.00000  0.16388   8.72
N009  3  0.47645  0.74262  0.41584 11.00000  0.16862   8.27
N00A  3  0.55514  0.61994  1.19126 11.00000  0.19011   8.19
N00B  3  0.48204  0.58874  1.02282 11.00000  0.16214   8.01
N00C  3  0.50000  1.00000 -0.31318 10.50000  0.16807   7.96
N00D  3  0.52735  0.79745  0.60207 11.00000  0.18011   7.39
C00E  1  0.51420  0.62509  1.08583 11.00000  0.17956   7.37
C00F  1  0.49786  0.95351 -0.20659 11.00000  0.14795   7.18
C00G  1  0.53525  0.95299 -0.09496 11.00000  0.15551   7.11
N00H  3  0.53343  0.76351  0.72847 11.00000  0.23968   6.94
N00I  3  0.51667  0.66534  0.96257 11.00000  0.20432   6.90
C00J  1  0.50489  0.68346  0.85474 11.00000  0.18760   6.55
C00K  1  0.48121  0.83253  0.16434 11.00000  0.22580   6.12
C00L  1  0.46639  0.54785  1.15548 11.00000  0.20174   6.02
O00M  4  0.54320  0.75692  0.87745 11.00000  0.18511   5.77
C00N  1  0.47935  0.71284  0.53108 11.00000  0.15597   5.77
C00O  1  0.49769  0.70379  0.67307 11.00000  0.14875   5.28
O00P  4  0.49467  0.65517  0.74030 11.00000  0.33741   5.20
C00Q  1  0.50243  0.83278  0.33065 11.00000  0.22914   5.17
O00R  4  0.49257  0.75210  0.31479 11.00000  0.33101   4.14
C00S  1  0.61876  0.67065  0.53844 11.00000  0.26842   3.60
C00T  1  0.64476  0.73525  0.42191 11.00000  0.20040   3.60
C00U  1  0.63624  0.66667  0.87120 11.00000  0.35599   3.46
C00V  1  0.68071  0.69233  0.73675 11.00000  0.27162   3.28
HKLF 4
END
