TITL 0620_expF_1_2_expS_1_2_0620_a.res in I-4
REM Old TITL 0620 in I4(1)/a
REM SHELXT solution in I-4: R1 0.677, Rweak 0.090, Alpha 0.288
REM <I/s>   0.000 for    0 systematic absences,  Orientation as input
REM Flack x = -9.990 ( 9.990 ) from    61 Parsons' quotients
REM Formula found by SHELXT:  C33 N13 O20

CELL  0.71073  26.6550  26.6550   7.5900   90.000   90.000   90.000
ZERR  108.000   0.0038   0.0038   0.0015    0.000    0.000    0.000
LATT -2
SYMM -X, -Y, Z
SYMM Y, -X, -Z
SYMM -Y, X, -Z
SFAC C H N O
UNIT 108 108 108 108
L.S. 10
BOND
LIST 6
FMAP 2
PLAN 20
N001  3  0.50000  0.50000  0.50000 10.25000  0.17733  14.30
N002  3  0.51198  0.52999  0.59309 11.00000  0.17331  10.64
N003  3  0.59023  0.51783  1.10696 11.00000  0.27521   6.93
C004  1  0.75013  0.50991  0.46128 11.00000  0.17230   6.68
C005  1  0.53303  0.58114  0.61356 11.00000  0.20107   5.86
C006  1  0.72239  0.50457  0.56275 11.00000  0.19181   5.56
N007  3  0.55330  0.61917  0.73335 11.00000  0.21348   5.19
C008  1  0.87980  0.50440  0.12072 11.00000  0.20812   4.64
O009  4  0.67396  0.48374  0.96416 11.00000  0.39697   4.53
O00A  4  0.68242  0.59066  1.01799 11.00000  0.30159   4.52
C00B  1  0.66220  0.61748  1.13152 11.00000  0.26973   4.51
O00C  4  0.70128  0.49292  0.75990 11.00000  0.30355   4.20
C00D  1  1.00000  0.50000 -0.25000 10.25000  0.11024   3.62
C00E  1  0.97597  0.51183 -0.05325 11.00000  0.36185   3.60
C00F  1  0.55654  0.54673  0.90258 11.00000  0.21721   3.60
C00G  1  0.62940  0.50917  0.81879 11.00000  0.22922   3.54
O00H  4  0.92094  0.53122 -0.13601 11.00000  0.33221   3.35
O00I  4  0.77021  0.48587  0.66042 11.00000  0.38849   3.14
HKLF 4
END
