TITL 0620_expF_0_9_expS_1_5_0620_a.res in I-4
REM Old TITL 0620 in I4(1)/a
REM SHELXT solution in I-4: R1 0.511, Rweak 0.194, Alpha 0.205
REM <I/s>   0.000 for    0 systematic absences,  Orientation as input
REM Flack x = -9.990 ( 9.990 ) from    72 Parsons' quotients
REM Formula found by SHELXT:  C84 N41 O4

CELL  0.71073  26.6550  26.6550   7.5900   90.000   90.000   90.000
ZERR  108.000   0.0038   0.0038   0.0015    0.000    0.000    0.000
LATT -2
SYMM -X, -Y, Z
SYMM Y, -X, -Z
SYMM -Y, X, -Z
SFAC C H N O
UNIT 108 108 108 108
L.S. 10
BOND
LIST 6
FMAP 2
PLAN 20
N001  3  0.50000  0.50000 -0.50000 10.25000  0.10664  11.17
N002  3  0.48163  0.58841 -0.08830 11.00000  0.23345   9.55
N003  3  0.50923  0.62034 -0.11508 11.00000  0.18433   8.77
N004  3  0.53939  0.58069 -0.38331 11.00000  0.14842   8.00
N005  3  0.44918  0.87661  1.02384 11.00000  0.25385   7.99
N006  3  0.46658  0.90744  1.14252 11.00000  0.22967   7.83
N007  3  0.47597  0.74040  0.52995 11.00000  0.21730   7.48
C008  1  0.52826  0.91564  0.84725 11.00000  0.16024   7.42
C009  1  0.47688  0.70682  0.41584 11.00000  0.20123   7.38
C00A  1  0.50389  0.95137  1.10896 11.00000  0.17641   7.20
C00B  1  0.54138  0.61529 -0.24895 11.00000  0.13004   6.91
N00C  3  0.50908  0.53421 -0.38674 11.00000  0.17277   6.56
N00D  3  0.50139  0.79225  0.51273 11.00000  0.19876   6.51
N00E  3  0.52650  0.91781  0.97076 11.00000  0.26911   6.42
N00F  3  0.48920  0.87956  0.89739 11.00000  0.24467   5.96
C00G  1  0.52608  0.66748 -0.03771 11.00000  0.17027   5.63
C00H  1  0.53584  0.96230  0.97279 11.00000  0.26154   5.52
C00I  1  0.46626  0.55128 -0.23778 11.00000  0.16241   5.45
C00J  1  0.52976  0.75337  0.20872 11.00000  0.17510   5.22
C00K  1  0.49903  0.71229  0.25677 11.00000  0.20789   5.15
C00L  1  0.50470  0.82215  0.62109 11.00000  0.19603   5.15
C00M  1  0.50462  0.63925 -0.21520 11.00000  0.26200   5.13
C00N  1  0.49630  0.82736  0.76369 11.00000  0.21862   4.82
C00O  1  0.51682  0.66809  0.08337 11.00000  0.22563   4.52
O00P  4  0.46383  0.73790  0.69563 11.00000  0.28712   4.37
C00Q  1  0.48291  0.65595  0.19634 11.00000  0.28101   3.97
C00R  1  0.55095  0.74831  0.04137 11.00000  0.18909   3.90
C00S  1  0.73042  0.85341  1.24841 11.00000  0.23278   3.52
C00T  1  0.74812  0.83395  1.10342 11.00000  0.32360   3.26
C00U  1  0.69486  0.82974  1.18833 11.00000  0.32341   3.23
C00V  1  0.67187  0.86648  1.05736 11.00000  0.27248   3.23
C00W  1  0.64230  0.84613  0.83604 11.00000  0.37150   3.20
C00X  1  0.66837  0.82341  0.94150 11.00000  0.33227   3.09
HKLF 4
END
