TITL 0620_expF_1_1_expS_0_9_0620_a.res in I-4
REM Old TITL 0620 in I4(1)/a
REM SHELXT solution in I-4: R1 0.335, Rweak 0.111, Alpha 0.204
REM <I/s>   0.000 for    0 systematic absences,  Orientation as input
REM Flack x = -9.990 ( 9.990 ) from   125 Parsons' quotients
REM Formula found by SHELXT:  C29 N18 O4

CELL  0.71073  26.6550  26.6550   7.5900   90.000   90.000   90.000
ZERR  108.000   0.0038   0.0038   0.0015    0.000    0.000    0.000
LATT -2
SYMM -X, -Y, Z
SYMM Y, -X, -Z
SYMM -Y, X, -Z
SFAC C H N O
UNIT 108 108 108 108
L.S. 10
BOND
LIST 6
FMAP 2
PLAN 20
N001  3  0.58743  0.53073 -0.10359 11.00000  0.14679   9.58
N002  3  0.61802  0.46537 -0.23939 11.00000  0.16181   8.78
N003  3  0.91731  0.53855  1.15982 11.00000  0.15142   7.48
N004  3  0.62691  0.50019 -0.13286 11.00000  0.17856   7.25
N005  3  0.70870  0.50244  0.23545 11.00000  0.15295   7.11
N006  3  0.55032  0.53087 -0.24569 11.00000  0.13777   7.00
N007  3  0.95711  0.50163  1.11658 11.00000  0.12733   6.92
N008  3  0.87623  0.51196  0.87396 11.00000  0.18617   6.70
C009  1  0.58544  0.46122 -0.37640 11.00000  0.08518   6.65
C00A  1  0.75931  0.47718  0.19593 11.00000  0.18148   6.39
C00B  1  0.90932  0.47231  0.86535 11.00000  0.13473   6.25
C00C  1  0.71013  0.52494  0.39054 11.00000  0.15483   6.19
C00D  1  0.50000  0.50000 -0.50000 10.25000  0.12768   6.00
C00E  1  0.88057  0.54354  1.01800 11.00000  0.12431   5.96
C00F  1  0.75080  0.52481  0.53920 11.00000  0.14057   5.82
O00G  4  0.79785  0.47060  0.31228 11.00000  0.24345   5.71
C00H  1  0.65925  0.50830  0.14788 11.00000  0.14557   5.64
C00I  1  0.83128  0.51809  0.74485 11.00000  0.15332   5.52
C00J  1  0.54199  0.48923 -0.37619 11.00000  0.10838   5.26
C00K  1  0.75167  0.45599  0.01180 11.00000  0.21850   5.18
C00L  1  0.95508  0.46593  0.98920 11.00000  0.14964   4.70
C00M  1  1.00000  0.50000  1.25000 10.25000  0.15688   4.32
N00N  3  0.66431  0.49205  0.01739 11.00000  0.23537   4.00
O00O  4  0.73807  0.54353  0.70900 11.00000  0.20224   3.75
C00P  1  0.63353  0.44010 -0.30726 11.00000  0.27043   3.56
C00Q  1  0.62608  0.53816  0.21827 11.00000  0.21879   3.09
C00R  1  0.65389  0.54100  0.43626 11.00000  0.24840   3.01
HKLF 4
END
