TITL 0620_expF_1_5_expS_0_8_0620_b.res in I-4
REM Old TITL 0620 in I4(1)/a
REM SHELXT solution in I-4: R1 0.440, Rweak 0.078, Alpha 0.133
REM <I/s>   0.000 for    0 systematic absences,  Orientation as input
REM Flack x = -1.883 ( 9.990 ) from    96 Parsons' quotients
REM Formula found by SHELXT:  C41 N8 O2

CELL  0.71073  26.6550  26.6550   7.5900   90.000   90.000   90.000
ZERR  108.000   0.0038   0.0038   0.0015    0.000    0.000    0.000
LATT -2
SYMM -X, -Y, Z
SYMM Y, -X, -Z
SYMM -Y, X, -Z
SFAC C H N O
UNIT 108 108 108 108
L.S. 10
BOND
LIST 6
FMAP 2
PLAN 20
N001  3  0.52164  0.40968 -0.10322 11.00000  0.19845   8.47
C002  1  0.46603  0.37682 -0.26823 11.00000  0.17285   7.42
N003  3  0.53343  0.45175 -0.23544 11.00000  0.17347   7.31
N004  3  0.49245  0.37378 -0.13560 11.00000  0.20631   7.01
C005  1  0.46034  0.41480 -0.39581 11.00000  0.13702   6.38
C006  1  0.54040  0.08567  1.13993 11.00000  0.14829   6.21
C007  1  0.50807  0.28870  0.26067 11.00000  0.25786   6.19
C008  1  0.50908  0.04160  1.12454 11.00000  0.10759   6.17
C009  1  0.52109  0.17532  0.77742 11.00000  0.18005   6.05
C00A  1  0.50000  0.50000 -0.50000 10.25000  0.16226   6.01
C00B  1  0.50310  0.44966 -0.36630 11.00000  0.18998   5.82
C00C  1  0.52708  0.25810  0.54486 11.00000  0.19852   5.74
C00D  1  0.51027  0.12303  0.89690 11.00000  0.19692   5.59
C00E  1  0.54925  0.11746  1.01380 11.00000  0.13106   5.48
C00F  1  0.51006  0.34258  0.16083 11.00000  0.22616   5.48
C00G  1  0.48204  0.24639  0.20823 11.00000  0.18998   5.37
C00H  1  0.46686  0.08370  0.84678 11.00000  0.16978   5.05
C00I  1  0.52241  0.29076  0.40650 11.00000  0.21620   4.89
C00J  1  0.47351  0.20974  0.31709 11.00000  0.22269   4.76
C00K  1  0.54262  0.26441  0.72050 11.00000  0.20466   4.18
C00L  1  0.45548  0.24867  0.05334 11.00000  0.22116   4.14
C00M  1  0.49322  0.33332  0.01098 11.00000  0.19257   3.87
C00N  1  0.46609  0.04803  0.98065 11.00000  0.17893   3.67
O00O  4  0.49853  0.17378  0.63114 11.00000  0.34636   3.65
N00P  3  0.64010  0.22412  0.25563 11.00000  0.27555   3.61
C00Q  1  0.50123  0.21086  0.48929 11.00000  0.20058   3.27
C00R  1  0.50000  0.00000  1.25000 10.25000  0.17942   3.22
HKLF 4
END
