TITL 0620_expF_0_8_expS_1_4_0620_a.res in I-4
REM Old TITL 0620 in I4(1)/a
REM SHELXT solution in I-4: R1 0.412, Rweak 0.062, Alpha 0.279
REM <I/s>   0.000 for    0 systematic absences,  Orientation as input
REM Flack x = -1.611 ( 9.990 ) from   101 Parsons' quotients
REM Formula found by SHELXT:  C45 N53 O20

CELL  0.71073  26.6550  26.6550   7.5900   90.000   90.000   90.000
ZERR  108.000   0.0038   0.0038   0.0015    0.000    0.000    0.000
LATT -2
SYMM -X, -Y, Z
SYMM Y, -X, -Z
SYMM -Y, X, -Z
SFAC C H N O
UNIT 108 108 108 108
L.S. 10
BOND
LIST 6
FMAP 2
PLAN 20
N001  3  0.97216  0.50906  1.14038 11.00000  0.13844  14.98
N002  3  1.00000  0.50000  1.25000 10.25000  0.09600  12.66
N003  3  0.88104  0.54900  1.00450 11.00000  0.17040  12.60
N004  3  0.88642  0.49837  0.86521 11.00000  0.22677  12.27
N005  3  0.75448  0.49065  0.19648 11.00000  0.17354  10.70
O006  4  0.92076  0.53825  1.13403 11.00000  0.23614  10.63
C007  1  0.90994  0.47469  0.82866 11.00000  0.18550  10.47
N008  3  0.79154  0.48637  0.32357 11.00000  0.18218   9.89
N009  3  0.79402  0.50162  0.47018 11.00000  0.16368   8.34
O00A  4  0.58799  0.45641 -0.39355 11.00000  0.24224   8.06
N00B  3  0.92256  0.52392  0.88602 11.00000  0.31247   7.83
N00C  3  0.62133  0.48711 -0.11816 11.00000  0.19915   7.79
N00D  3  0.58107  0.52183 -0.13368 11.00000  0.26040   7.12
N00E  3  0.83696  0.50989  0.74142 11.00000  0.21931   6.81
C00F  1  0.50000  0.50000 -0.50000 10.25000  0.07317   6.25
C00G  1  0.83503  0.50320  0.57035 11.00000  0.21316   5.96
C00H  1  0.94132  0.56560  0.81920 11.00000  0.22091   5.87
C00I  1  0.53811  0.49268 -0.37593 11.00000  0.18401   5.79
O00J  4  0.72195  0.51515  0.31910 11.00000  0.30605   5.77
C00K  1  0.74378  0.52183  0.49296 11.00000  0.18126   5.42
C00L  1  0.66811  0.49673  0.05489 11.00000  0.16509   5.33
O00M  4  0.75128  0.45656  0.01451 11.00000  0.31225   4.68
O00N  4  0.92278  0.58047  1.32781 11.00000  0.31520   4.64
C00O  1  0.61138  0.47458 -0.24253 11.00000  0.30784   3.98
C00P  1  0.92918  0.60252  1.21911 11.00000  0.26142   3.67
N00Q  3  0.72891  0.35538  0.54121 11.00000  0.31863   3.64
N00R  3  0.78890  0.41468  0.70809 11.00000  0.36784   3.52
C00S  1  0.62115  0.52026 -0.26039 11.00000  0.25549   3.41
C00T  1  0.84104  0.43780  0.95568 11.00000  0.29870   3.41
N00U  3  0.64127  0.64391 -0.11352 11.00000  0.33152   3.08
C00V  1  0.57833  0.53735 -0.25853 11.00000  0.26536   3.02
HKLF 4
END
