TITL 0620_expF_1_5_expS_1_3_0620_a.res in I4(1)/a
REM Old TITL 0620 in I4(1)/a
REM SHELXT solution in I4(1)/a: R1 0.689, Rweak 0.190, Alpha 0.121
REM <I/s>   0.000 for    0 systematic absences,  Orientation as input
REM Formula found by SHELXT:  C25 N16 O8

CELL  0.71073  26.6550  26.6550   7.5900   90.000   90.000   90.000
ZERR  108.000   0.0038   0.0038   0.0015    0.000    0.000    0.000
LATT  2
SYMM 1/2-X, -Y, 1/2+Z
SYMM 3/4-Y, 1/4+X, 1/4+Z
SYMM 3/4+Y, 3/4-X, 3/4+Z
SFAC C H N O
UNIT 108 108 108 108
L.S. 10
BOND
LIST 6
FMAP 2
PLAN 20
N001  3  0.52946  0.66533  0.55417 11.00000  0.43159   7.29
N002  3  0.48665  0.61988  0.47169 11.00000  0.33619   7.05
N003  3  0.53619  0.68908  0.40938 11.00000  0.34792   6.58
C004  1  0.45215  0.62966  0.34017 11.00000  0.25455   5.89
C005  1  0.49618  0.70304  0.27152 11.00000  0.28612   5.70
C006  1  0.49510  0.57499  0.65180 11.00000  0.29900   5.48
C007  1  0.51926  0.50734  1.15851 11.00000  0.29812   5.29
C008  1  0.50000  0.75000  0.12500 10.25000  0.26095   5.24
C009  1  0.46384  0.65917  0.21421 11.00000  0.27517   5.02
O00A  4  0.53714  0.51108  1.31129 11.00000  0.42301   4.33
N00B  3  0.51346  0.52916  0.99450 11.00000  0.37741   4.14
O00C  4  0.51063  0.54799  0.81709 11.00000  0.44906   3.61
C00D  1  0.54922  0.56283  1.13389 11.00000  0.37597   3.53
HKLF 4
END
