TITL 0620_expF_1_3_expS_1_1_0620_a.res in I4(1)/a
REM Old TITL 0620 in I4(1)/a
REM SHELXT solution in I4(1)/a: R1 0.628, Rweak 0.062, Alpha 0.146
REM <I/s>   0.000 for    0 systematic absences,  Orientation as input
REM Formula found by SHELXT:  C42 N13 O4

CELL  0.71073  26.6550  26.6550   7.5900   90.000   90.000   90.000
ZERR  108.000   0.0038   0.0038   0.0015    0.000    0.000    0.000
LATT  2
SYMM 1/2-X, -Y, 1/2+Z
SYMM 3/4-Y, 1/4+X, 1/4+Z
SYMM 3/4+Y, 3/4-X, 3/4+Z
SFAC C H N O
UNIT 108 108 108 108
L.S. 10
BOND
LIST 6
FMAP 2
PLAN 20
C001  1  0.52414  0.16184  0.49208 11.00000  0.13199   8.54
N002  3  0.45111  0.12894  0.63618 11.00000  0.16336   7.79
N003  3  0.46047  0.16727  0.76576 11.00000  0.12709   7.51
C004  1  0.49084  0.12332  0.50063 11.00000  0.12711   7.31
N005  3  0.52279  0.00694 -0.15878 11.00000  0.16506   6.97
C006  1  0.49549  0.20865  0.75352 11.00000  0.10076   6.93
N007  3  0.50000  0.25000  0.87500 10.25000  0.14022   6.57
C008  1  0.52198  0.03611 -0.01976 11.00000  0.19215   6.33
C009  1  0.53063  0.19795  0.63124 11.00000  0.14341   6.29
C00A  1  0.50337  0.04131  0.11887 11.00000  0.12195   5.96
C00B  1  0.48889  0.08220  0.37920 11.00000  0.15059   5.47
C00C  1  0.50294  0.08042  0.23093 11.00000  0.19336   5.08
O00D  4  0.54858  0.00921 -0.34573 11.00000  0.26424   4.84
C00E  1  0.50000  0.00000  0.00000 10.50000  0.30361   3.89
C00F  1  0.53057  0.10711  0.19310 11.00000  0.27060   3.72
C00G  1  0.52022  0.05162 -0.05914 11.00000  0.23963   3.15
HKLF 4
END
