TITL 0620_expF_1_1_expS_0_9_0620_b.res in I4(1)
REM Old TITL 0620 in I4(1)/a
REM SHELXT solution in I4(1): R1 0.356, Rweak 0.122, Alpha 0.196
REM <I/s>   0.000 for    0 systematic absences,  Orientation as input
REM Flack x = -9.990 ( 9.990 ) from   128 Parsons' quotients
REM Formula found by SHELXT:  C35 N8 O8

CELL  0.71073  26.6550  26.6550   7.5900   90.000   90.000   90.000
ZERR  108.000   0.0038   0.0038   0.0015    0.000    0.000    0.000
LATT -2
SYMM 1/2-X, 1/2-Y, 1/2+Z
SYMM -Y, 1/2+X, 1/4+Z
SYMM 1/2+Y, -X, 3/4+Z
SFAC C H N O
UNIT 108 108 108 108
L.S. 10
BOND
LIST 6
FMAP 2
PLAN 20
C001  1  0.58462  0.53344  1.29252 11.00000  0.11238   8.75
O002  4  0.61439  0.48545  1.23092 11.00000  0.22612   8.32
C003  1  0.62198  0.46041  1.12355 11.00000  0.10357   7.36
N004  3  0.58057  0.46399  0.99922 11.00000  0.15503   6.87
N005  3  0.45179  0.38315  0.66724 11.00000  0.15827   6.85
N006  3  0.46296  0.41405  0.78510 11.00000  0.11297   6.71
C007  1  0.51202  0.25678 -0.13348 11.00000  0.18496   6.41
C008  1  0.53330  0.44577  0.65765 11.00000  0.13897   6.30
C009  1  0.48328  0.32981  0.39857 11.00000  0.12380   6.08
C00A  1  0.47937  0.20443  0.05514 11.00000  0.13243   6.05
C00B  1  0.52899  0.40901  0.52313 11.00000  0.11845   5.94
C00C  1  0.50787  0.33857  0.24925 11.00000  0.16121   5.83
C00D  1  0.49103  0.45595  0.76760 11.00000  0.09091   5.79
C00E  1  0.54346  0.49901  1.02940 11.00000  0.11243   5.74
C00F  1  0.49397  0.21015 -0.10498 11.00000  0.12115   5.29
O00G  4  0.46071  0.24414  0.36465 11.00000  0.20979   5.17
C00H  1  0.54326  0.53073  1.16941 11.00000  0.11461   5.13
C00I  1  0.50000  0.50000  0.88839 10.50000  0.11913   5.07
C00J  1  0.47528  0.24564  0.19904 11.00000  0.11076   4.90
C00K  1  0.49084  0.36806  0.54365 11.00000  0.18604   4.56
C00L  1  0.52603  0.28057 -0.02660 11.00000  0.18784   4.48
N00M  3  0.61554  0.51222  1.31461 11.00000  0.22224   4.00
C00N  1  0.50761  0.28674  0.11376 11.00000  0.21433   3.54
C00O  1  0.54128  0.25630 -0.31461 11.00000  0.22107   3.51
O00P  4  0.55702  0.39684  0.37602 11.00000  0.40637   3.18
O00Q  4  0.46414  0.18431  0.11437 11.00000  0.26031   3.16
HKLF 4
END
