TITL 0620_expF_1_5_expS_0_8_0620_c.res in I4(1)
REM Old TITL 0620 in I4(1)/a
REM SHELXT solution in I4(1): R1 0.453, Rweak 0.108, Alpha 0.156
REM <I/s>   0.000 for    0 systematic absences,  Orientation as input
REM Flack x = -6.735 ( 9.990 ) from    96 Parsons' quotients
REM Formula found by SHELXT:  C35 N12 O6

CELL  0.71073  26.6550  26.6550   7.5900   90.000   90.000   90.000
ZERR  108.000   0.0038   0.0038   0.0015    0.000    0.000    0.000
LATT -2
SYMM 1/2-X, 1/2-Y, 1/2+Z
SYMM -Y, 1/2+X, 1/4+Z
SYMM 1/2+Y, -X, 3/4+Z
SFAC C H N O
UNIT 108 108 108 108
L.S. 10
BOND
LIST 6
FMAP 2
PLAN 20
N001  3  1.03250  0.41357  1.30177 11.00000  0.17885   8.00
N002  3  0.87879  0.55526  0.67883 11.00000  0.20182   7.36
N003  3  0.91264  0.54116  0.79031 11.00000  0.15609   7.33
C004  1  0.99503  0.37798  1.27696 11.00000  0.17025   7.12
N005  3  0.81878  0.50584  0.33375 11.00000  0.20938   7.12
N006  3  0.95650  0.50763  0.76426 11.00000  0.18345   6.80
N007  3  0.96179  0.38026  1.14549 11.00000  0.18572   6.64
C008  1  1.02914  0.44897  1.14746 11.00000  0.19922   6.50
C009  1  0.73336  0.52745  0.19302 11.00000  0.18903   6.36
C00A  1  0.90867  0.47605  0.50671 11.00000  0.16613   5.99
C00B  1  0.99849  0.45655  1.02483 11.00000  0.14350   5.95
C00C  1  0.96546  0.41933  0.99962 11.00000  0.17070   5.77
C00D  1  0.75161  0.47522 -0.12520 11.00000  0.14928   5.73
C00E  1  0.83337  0.51769  0.44599 11.00000  0.19521   5.72
C00F  1  0.87167  0.51623  0.58144 11.00000  0.20058   5.49
C00G  1  0.95631  0.46918  0.63094 11.00000  0.14343   5.48
C00H  1  0.69911  0.53310  0.08020 11.00000  0.16630   5.47
C00I  1  0.79109  0.50086  0.17420 11.00000  0.16527   5.29
C00J  1  1.00000  0.50000  0.90066 10.50000  0.14191   5.15
O00K  4  0.84705  0.49175  0.21986 11.00000  0.28544   4.63
C00L  1  0.78830  0.48259  0.00539 11.00000  0.21310   4.54
C00M  1  0.75898  0.46277 -0.30177 11.00000  0.22241   4.49
C00N  1  0.71358  0.50598 -0.09782 11.00000  0.24528   4.44
O00O  4  0.74641  0.54311  0.35225 11.00000  0.27142   4.36
C00P  1  1.04253  0.43018  1.18505 11.00000  0.27983   4.09
O00Q  4  0.86117  0.34459  0.68472 11.00000  0.50067   3.45
C00R  1  0.83601  0.36803  0.49747 11.00000  0.35720   3.14
HKLF 4
END
