TITL 0620_expF_0_9_expS_1_2_0620_a.res in I4(1)
REM Old TITL 0620 in I4(1)/a
REM SHELXT solution in I4(1): R1 0.332, Rweak 0.029, Alpha 0.187
REM <I/s>   0.000 for    0 systematic absences,  Orientation as input
REM Flack x = -2.091 ( 9.990 ) from   117 Parsons' quotients
REM Formula found by SHELXT:  C31 N30 O2

CELL  0.71073  26.6550  26.6550   7.5900   90.000   90.000   90.000
ZERR  108.000   0.0038   0.0038   0.0015    0.000    0.000    0.000
LATT -2
SYMM 1/2-X, 1/2-Y, 1/2+Z
SYMM -Y, 1/2+X, 1/4+Z
SYMM 1/2+Y, -X, 3/4+Z
SFAC C H N O
UNIT 108 108 108 108
L.S. 10
BOND
LIST 6
FMAP 2
PLAN 20
N001  3  0.41174  0.47067  1.31456 11.00000  0.16929  10.54
N002  3  0.45632  0.38472  0.69755 11.00000  0.17439  10.51
N003  3  0.45976  0.41738  0.83028 11.00000  0.13148   9.00
N004  3  0.45506  0.50093  1.04077 11.00000  0.15218   8.73
N005  3  0.44719  0.47074  1.16836 11.00000  0.16395   8.58
N006  3  0.37998  0.50445  1.29676 11.00000  0.17501   7.85
N007  3  0.47376  0.24725  0.23103 11.00000  0.16104   7.34
C008  1  0.47621  0.20464  0.10228 11.00000  0.15468   7.26
N009  3  0.41459  0.53424  1.04653 11.00000  0.18978   7.10
N00A  3  0.47953  0.33614  0.43200 11.00000  0.19748   7.08
N00B  3  0.52626  0.26252 -0.11838 11.00000  0.26861   6.93
N00C  3  0.48443  0.37529  0.57235 11.00000  0.21801   6.74
C00D  1  0.49074  0.20612 -0.08155 11.00000  0.17677   6.60
C00E  1  0.52616  0.40860  0.53586 11.00000  0.13844   6.41
C00F  1  0.50000  0.50000  0.91412 10.50000  0.13218   6.26
C00G  1  0.48726  0.46054  0.79900 11.00000  0.13260   6.14
C00H  1  0.50399  0.33977  0.28204 11.00000  0.17447   5.62
C00I  1  0.54258  0.45553  0.65907 11.00000  0.15615   5.35
C00J  1  0.37776  0.53881  1.16883 11.00000  0.14524   5.19
C00K  1  0.45228  0.24738  0.38717 11.00000  0.14692   5.10
C00L  1  0.52605  0.29116  0.02998 11.00000  0.21786   4.92
N00M  3  0.35355  0.26846 -0.03160 11.00000  0.40226   4.86
C00N  1  0.54124  0.26534 -0.29856 11.00000  0.20132   4.81
C00O  1  0.49923  0.28476  0.17699 11.00000  0.16813   4.62
C00P  1  0.47589  0.16774 -0.18156 11.00000  0.26186   3.91
C00Q  1  0.46534  0.13056 -0.10560 11.00000  0.24171   3.87
C00R  1  0.46239  0.16749 -0.00499 11.00000  0.32652   3.84
O00S  4  0.54590  0.40129  0.41590 11.00000  0.39158   3.58
N00T  3  0.45379  0.15430  0.13719 11.00000  0.38247   3.57
N00U  3  0.57232  0.38981  0.24319 11.00000  0.35180   3.55
C00V  1  0.50661  0.17930 -0.31456 11.00000  0.27130   3.13
N00W  3  0.33919  0.34376  0.26117 11.00000  0.39765   3.10
HKLF 4
END
