TITL 0620_expF_1_3_expS_1_1_0620_c.res in I-4
REM Old TITL 0620 in I4(1)/a
REM SHELXT solution in I-4: R1 0.598, Rweak 0.107, Alpha 0.125
REM <I/s>   0.000 for    0 systematic absences,  Orientation as input
REM Flack x = -9.990 ( 9.990 ) from    61 Parsons' quotients
REM Formula found by SHELXT:  C80 N O24

CELL  0.71073  26.6550  26.6550   7.5900   90.000   90.000   90.000
ZERR  108.000   0.0038   0.0038   0.0015    0.000    0.000    0.000
LATT -2
SYMM -X, -Y, Z
SYMM Y, -X, -Z
SYMM -Y, X, -Z
SFAC C H N O
UNIT 108 108 108 108
L.S. 10
BOND
LIST 6
FMAP 2
PLAN 20
N001  3  0.50000  1.00000  1.25000 10.25000  0.09466   9.06
O002  4  0.53169  0.91671  0.86174 11.00000  0.29040   9.02
O003  4  0.45241  0.87883  1.02456 11.00000  0.21867   7.95
C004  1  0.49050  0.87242  0.91796 11.00000  0.18110   7.28
C005  1  0.49473  0.96001  1.12251 11.00000  0.13606   6.74
C006  1  0.53003  0.94899  0.99854 11.00000  0.14019   6.38
C007  1  0.46432  0.91649  1.13422 11.00000  0.15780   6.36
C008  1  0.51243  0.79590  0.48090 11.00000  0.20604   5.96
C009  1  0.48222  0.73604  0.48557 11.00000  0.20144   5.50
C00A  1  0.54471  0.58439 -0.40183 11.00000  0.13811   5.42
O00B  4  0.48726  0.59829 -0.13233 11.00000  0.29063   5.32
C00C  1  0.48736  0.70856  0.37746 11.00000  0.24817   5.20
C00D  1  0.52314  0.75662  0.18403 11.00000  0.20911   5.19
C00E  1  0.52635  0.78840  0.32208 11.00000  0.17315   5.11
C00F  1  0.49363  0.82072  0.63470 11.00000  0.23106   4.95
C00G  1  0.51372  0.66790  0.00989 11.00000  0.19333   4.66
C00H  1  0.50385  0.54530 -0.37948 11.00000  0.25034   4.56
C00I  1  0.51413  0.63137 -0.11114 11.00000  0.19753   4.54
O00J  4  0.64490  0.72104  0.47586 11.00000  0.27944   4.17
C00K  1  0.49910  0.83564  0.79582 11.00000  0.22894   3.84
C00L  1  0.54143  0.75728  0.01731 11.00000  0.21274   3.61
C00M  1  0.50288  0.70618  0.20052 11.00000  0.21293   3.57
C00N  1  0.54725  0.61097 -0.24883 11.00000  0.18416   3.56
O00O  4  0.51990  0.84638  0.57889 11.00000  0.35566   3.46
C00P  1  0.50611  0.73565  0.30120 11.00000  0.25055   3.24
O00Q  4  0.67222  0.86683  0.05898 11.00000  0.42233   3.20
C00R  1  0.64000  0.83149 -0.11163 11.00000  0.32334   3.15
HKLF 4
END
