TITL 0620_expF_0_9_expS_1_4_0620_b.res in I-4
REM Old TITL 0620 in I4(1)/a
REM SHELXT solution in I-4: R1 0.476, Rweak 0.109, Alpha 0.213
REM <I/s>   0.000 for    0 systematic absences,  Orientation as input
REM Flack x = -6.169 ( 9.990 ) from    84 Parsons' quotients
REM Formula found by SHELXT:  C64 N25 O12

CELL  0.71073  26.6550  26.6550   7.5900   90.000   90.000   90.000
ZERR  108.000   0.0038   0.0038   0.0015    0.000    0.000    0.000
LATT -2
SYMM -X, -Y, Z
SYMM Y, -X, -Z
SYMM -Y, X, -Z
SFAC C H N O
UNIT 108 108 108 108
L.S. 10
BOND
LIST 6
FMAP 2
PLAN 20
N001  3  0.46698  0.08292  0.85807 11.00000  0.23795   7.20
N002  3  0.50000  0.00000  1.25000 10.25000  0.16575   7.15
C003  1  0.51470  0.13625  0.99416 11.00000  0.29613   6.82
C004  1  0.47128  0.05345  0.99261 11.00000  0.14259   6.23
C005  1  0.45606  0.41035 -0.39058 11.00000  0.16542   6.16
N006  3  0.50650  0.12110  0.87276 11.00000  0.22031   6.04
C007  1  0.50713  0.04033  1.11938 11.00000  0.15142   5.77
C008  1  0.49005  0.37141 -0.11685 11.00000  0.17968   5.43
C009  1  0.47412  0.23688  0.21087 11.00000  0.16416   5.04
C00A  1  0.45054  0.37927 -0.24373 11.00000  0.17956   4.98
C00B  1  0.52155  0.40945 -0.11204 11.00000  0.16023   4.97
C00C  1  0.51966  0.24623  0.53716 11.00000  0.25234   4.83
C00D  1  0.49861  0.44971 -0.37800 11.00000  0.16515   4.75
C00E  1  0.48524  0.32537  0.00963 11.00000  0.21452   4.72
C00F  1  0.49375  0.15799  0.60306 11.00000  0.18442   4.64
C00G  1  0.50608  0.28194  0.24021 11.00000  0.23123   4.54
N00H  3  0.53739  0.08180  1.14571 11.00000  0.15507   4.50
O00I  4  0.51399  0.29164  0.40287 11.00000  0.36348   4.38
C00J  1  0.47447  0.20419  0.33019 11.00000  0.17657   4.14
O00K  4  0.45207  0.24452  0.05364 11.00000  0.30155   4.12
N00L  3  0.35585  0.27565  0.49094 11.00000  0.29583   3.59
O00M  4  0.54434  0.25904  0.73169 11.00000  0.28669   3.40
N00N  3  0.54594  0.11556  1.02765 11.00000  0.19676   3.33
C00O  1  0.50847  0.16865  0.74483 11.00000  0.19857   3.32
N00P  3  0.50092  0.19438  0.51132 11.00000  0.27291   3.18
C00Q  1  0.53806  0.45129 -0.23946 11.00000  0.20289   3.15
HKLF 4
END
