TITL 0620_expF_0_7_expS_1_5_0620_b.res in I-4
REM Old TITL 0620 in I4(1)/a
REM SHELXT solution in I-4: R1 0.386, Rweak 0.155, Alpha 0.209
REM <I/s>   0.000 for    0 systematic absences,  Orientation as input
REM Flack x = -6.414 ( 9.990 ) from   116 Parsons' quotients
REM Formula found by SHELXT:  C72 N13 O12

CELL  0.71073  26.6550  26.6550   7.5900   90.000   90.000   90.000
ZERR  108.000   0.0038   0.0038   0.0015    0.000    0.000    0.000
LATT -2
SYMM -X, -Y, Z
SYMM Y, -X, -Z
SYMM -Y, X, -Z
SFAC C H N O
UNIT 108 108 108 108
L.S. 10
BOND
LIST 6
FMAP 2
PLAN 20
O001  4  0.54599  0.61324  1.26642 11.00000  0.20903   8.36
N002  3  0.53393  0.95351  0.01875 11.00000  0.13957   8.09
N003  3  0.54202  0.58485  1.40933 11.00000  0.15715   7.36
N004  3  0.50000  1.00000 -0.25000 10.25000  0.08054   7.11
C005  1  0.52774  0.90837  0.15202 11.00000  0.11549   7.08
N006  3  0.49482  0.87435  0.09912 11.00000  0.22196   7.06
O007  4  0.46772  0.58020  1.15938 11.00000  0.33354   6.38
C008  1  0.47962  0.74216  0.47663 11.00000  0.14442   5.90
C009  1  0.51278  0.54480  1.38062 11.00000  0.17112   5.86
C00A  1  0.45848  0.87308 -0.00662 11.00000  0.14976   5.85
C00B  1  0.51211  0.61774  1.12116 11.00000  0.15157   5.82
C00C  1  0.49947  0.95680 -0.12121 11.00000  0.11275   5.67
C00D  1  0.52246  0.75357  0.82218 11.00000  0.25482   5.54
C00E  1  0.52163  0.79289  0.68842 11.00000  0.21457   5.54
C00F  1  0.52248  0.81611  0.38052 11.00000  0.33565   5.30
C00G  1  0.46335  0.91409 -0.13029 11.00000  0.11709   5.15
C00H  1  0.48977  0.82581  0.21040 11.00000  0.31752   4.78
C00I  1  0.54445  0.75133  0.98302 11.00000  0.15841   4.77
C00J  1  0.49932  0.71027  0.76218 11.00000  0.19234   4.54
C00K  1  0.52232  0.85065  0.45278 11.00000  0.24248   4.47
C00L  1  0.51304  0.66976  0.98851 11.00000  0.16361   4.27
C00M  1  0.49987  0.78741  0.51407 11.00000  0.22802   3.91
C00N  1  0.47106  0.69958  0.58870 11.00000  0.23201   3.87
O00O  4  0.46690  0.74250  0.30618 11.00000  0.36657   3.33
C00P  1  0.49857  0.66838  0.85455 11.00000  0.19017   3.08
HKLF 4
END
