TITL 0620_expF_0_7_expS_1_5_0620_a.res in I4(1)
REM Old TITL 0620 in I4(1)/a
REM SHELXT solution in I4(1): R1 0.373, Rweak 0.210, Alpha 0.206
REM <I/s>   0.000 for    0 systematic absences,  Orientation as input
REM Flack x = -9.990 ( 9.990 ) from   118 Parsons' quotients
REM Formula found by SHELXT:  C39 N12 O4

CELL  0.71073  26.6550  26.6550   7.5900   90.000   90.000   90.000
ZERR  108.000   0.0038   0.0038   0.0015    0.000    0.000    0.000
LATT -2
SYMM 1/2-X, 1/2-Y, 1/2+Z
SYMM -Y, 1/2+X, 1/4+Z
SYMM 1/2+Y, -X, 3/4+Z
SFAC C H N O
UNIT 108 108 108 108
L.S. 10
BOND
LIST 6
FMAP 2
PLAN 20
N001  3  0.99265  0.38110  1.21656 11.00000  0.19124   9.24
N002  3  1.02564  0.40929  1.24374 11.00000  0.19644   8.80
N003  3  0.88146  0.54215  0.56532 11.00000  0.22780   8.71
N004  3  0.95636  0.37922  1.06190 11.00000  0.16628   7.77
N005  3  0.91329  0.54111  0.72600 11.00000  0.14809   7.76
N006  3  0.75454  0.48707 -0.19363 11.00000  0.20113   6.91
C007  1  0.74292  0.53281  0.14803 11.00000  0.14992   6.79
C008  1  1.03011  0.45400  1.09787 11.00000  0.12466   6.67
C009  1  0.99461  0.45983  0.97012 11.00000  0.10202   6.61
C00A  1  0.96269  0.41702  0.93781 11.00000  0.13268   6.52
C00B  1  0.95249  0.50628  0.71062 11.00000  0.12756   6.27
C00C  1  0.94550  0.46558  0.59068 11.00000  0.13970   6.15
C00D  1  0.83193  0.49718  0.21193 11.00000  0.17135   6.15
C00E  1  0.91091  0.46682  0.45971 11.00000  0.13249   6.14
C00F  1  0.68942  0.53783  0.04115 11.00000  0.19128   6.09
C00G  1  1.00000  0.50000  0.84229 10.50000  0.14858   5.79
C00H  1  0.71122  0.50516 -0.17261 11.00000  0.14640   5.78
O00I  4  0.74293  0.54054  0.31528 11.00000  0.20032   5.67
C00J  1  0.83813  0.51643  0.35486 11.00000  0.16086   5.41
C00K  1  0.87081  0.49921  0.46462 11.00000  0.20666   5.08
C00L  1  0.98934  0.37632  1.11561 11.00000  0.26180   4.90
C00M  1  0.98665  0.32231  1.35322 11.00000  0.22728   4.84
C00N  1  0.78355  0.47418 -0.08973 11.00000  0.17513   4.60
O00O  4  0.86071  0.47285  0.12690 11.00000  0.41750   4.25
C00P  1  0.87088  0.56521  0.64253 11.00000  0.26491   3.70
C00Q  1  0.75647  0.44748 -0.35322 11.00000  0.23734   3.69
C00R  1  0.78746  0.50520  0.06900 11.00000  0.28891   3.23
C00S  1  0.70947  0.52167 -0.05494 11.00000  0.21700   3.14
HKLF 4
END
