TITL 0620_expF_0_9_expS_1_2_0620_b.res in I-4
REM Old TITL 0620 in I4(1)/a
REM SHELXT solution in I-4: R1 0.378, Rweak 0.067, Alpha 0.175
REM <I/s>   0.000 for    0 systematic absences,  Orientation as input
REM Flack x = -9.990 ( 9.990 ) from   115 Parsons' quotients
REM Formula found by SHELXT:  C68 N21 O8

CELL  0.71073  26.6550  26.6550   7.5900   90.000   90.000   90.000
ZERR  108.000   0.0038   0.0038   0.0015    0.000    0.000    0.000
LATT -2
SYMM -X, -Y, Z
SYMM Y, -X, -Z
SYMM -Y, X, -Z
SFAC C H N O
UNIT 108 108 108 108
L.S. 10
BOND
LIST 6
FMAP 2
PLAN 20
N001  3  0.50000  0.50000  0.00000 10.25000  0.12596   7.57
N002  3  0.44214  0.87373  0.52428 11.00000  0.24235   7.37
N003  3  0.53247  0.90943  0.36613 11.00000  0.19044   7.14
N004  3  0.47161  0.58482  0.40522 11.00000  0.21772   6.93
C005  1  0.46513  0.91287  0.66992 11.00000  0.12913   6.77
N006  3  0.49392  0.95400  0.63057 11.00000  0.17043   6.54
C007  1  0.48553  0.74084  1.05905 11.00000  0.16011   6.34
C008  1  0.46569  0.54597  0.27113 11.00000  0.12234   5.89
C009  1  0.54287  0.57941  0.12139 11.00000  0.12826   5.84
C00A  1  0.47827  0.70384  0.92687 11.00000  0.15569   5.80
C00B  1  0.50252  0.78992  1.01237 11.00000  0.11356   5.78
C00C  1  0.50617  0.88603  0.37477 11.00000  0.23238   5.75
C00D  1  0.53771  0.61922  0.25625 11.00000  0.14746   5.55
C00E  1  0.50785  0.62552  0.38269 11.00000  0.12949   5.30
C00F  1  0.51724  0.66799  0.48238 11.00000  0.16091   5.22
C00G  1  0.50701  0.54142  0.13713 11.00000  0.13085   5.22
C00H  1  0.53480  0.94446  0.50090 11.00000  0.14788   5.18
C00I  1  0.53339  0.75487  0.73066 11.00000  0.13486   4.96
O00J  4  0.45661  0.73775  1.22188 11.00000  0.23704   4.90
C00K  1  0.50022  0.66419  0.62706 11.00000  0.22161   4.52
C00L  1  0.47453  0.87169  0.46843 11.00000  0.21967   4.33
C00M  1  0.46012  0.89706  0.58910 11.00000  0.21085   3.83
N00N  3  0.34445  0.76620  0.77457 11.00000  0.41098   3.56
C00O  1  0.52178  0.78853  0.87046 11.00000  0.22744   3.47
O00P  4  0.54531  0.75625  0.55075 11.00000  0.28038   3.26
HKLF 4
END
