TITL 0620_expF_1_4_expS_0_9_0620_b.res in I4(1)
REM Old TITL 0620 in I4(1)/a
REM SHELXT solution in I4(1): R1 0.464, Rweak 0.176, Alpha 0.180
REM <I/s>   0.000 for    0 systematic absences,  Orientation as input
REM Flack x = -1.895 ( 9.990 ) from    81 Parsons' quotients
REM Formula found by SHELXT:  C29 N10 O14

CELL  0.71073  26.6550  26.6550   7.5900   90.000   90.000   90.000
ZERR  108.000   0.0038   0.0038   0.0015    0.000    0.000    0.000
LATT -2
SYMM 1/2-X, 1/2-Y, 1/2+Z
SYMM -Y, 1/2+X, 1/4+Z
SYMM 1/2+Y, -X, 3/4+Z
SFAC C H N O
UNIT 108 108 108 108
L.S. 10
BOND
LIST 6
FMAP 2
PLAN 20
O001  4  0.08737  0.52418  0.93029 11.00000  0.28940   8.57
O002  4  0.41407  0.54124 -0.31115 11.00000  0.20772   8.21
N003  3  0.12298  0.49316  0.95503 11.00000  0.18528   8.13
O004  4  0.11907  0.46393  1.08844 11.00000  0.24829   7.83
C005  1  0.40986  0.47610 -0.04490 11.00000  0.15984   7.39
N006  3  0.45359  0.50456 -0.29285 11.00000  0.20813   7.37
N007  3  0.38079  0.55044 -0.18957 11.00000  0.18238   6.65
N008  3  0.24951  0.52025  0.27536 11.00000  0.23155   6.62
N009  3  0.33540  0.51449  0.05117 11.00000  0.25581   6.52
C00A  1  0.08347  0.46269  1.23592 11.00000  0.14974   6.48
C00B  1  0.43771  0.46335 -0.18267 11.00000  0.16097   6.34
C00C  1  0.20865  0.51613  0.42926 11.00000  0.16414   6.17
C00D  1  0.04239  0.49754  1.19369 11.00000  0.13303   5.97
C00E  1  0.21176  0.50678  0.58173 11.00000  0.16297   5.86
C00F  1  0.25769  0.48598  0.63221 11.00000  0.17874   5.85
O00G  4  0.24323  0.54160  0.11976 11.00000  0.19234   5.72
C00H  1  0.00000  0.50000  1.31115 10.50000  0.13575   5.66
C00I  1  0.32856  0.49460  0.18813 11.00000  0.22262   5.62
C00J  1  0.04552  0.53043  1.05452 11.00000  0.11830   5.59
C00K  1  0.29799  0.49689  0.35830 11.00000  0.23486   4.96
C00L  1  0.28477  0.47709  0.50753 11.00000  0.22185   4.90
O00M  4  0.40593  0.43943  0.03209 11.00000  0.46860   4.82
C00N  1  0.37581  0.52540 -0.07903 11.00000  0.26896   4.78
O00O  4  0.36522  0.46774  0.26920 11.00000  0.39565   4.30
C00P  1  0.16189  0.50931  0.66825 11.00000  0.23128   3.83
C00Q  1  0.17215  0.48629  0.83059 11.00000  0.21606   3.79
O00R  4  0.17824  0.53899  0.36156 11.00000  0.34686   3.36
HKLF 4
END
