TITL 0620_expF_1_1_expS_1_1_0620_b.res in I-4
REM Old TITL 0620 in I4(1)/a
REM SHELXT solution in I-4: R1 0.432, Rweak 0.064, Alpha 0.187
REM <I/s>   0.000 for    0 systematic absences,  Orientation as input
REM Flack x = -9.990 ( 9.990 ) from    93 Parsons' quotients
REM Formula found by SHELXT:  C37 N8 O10

CELL  0.71073  26.6550  26.6550   7.5900   90.000   90.000   90.000
ZERR  108.000   0.0038   0.0038   0.0015    0.000    0.000    0.000
LATT -2
SYMM -X, -Y, Z
SYMM Y, -X, -Z
SYMM -Y, X, -Z
SFAC C H N O
UNIT 108 108 108 108
L.S. 10
BOND
LIST 6
FMAP 2
PLAN 20
N001  3  0.46832  0.58095  1.12945 11.00000  0.17262   8.27
N002  3  0.54103  0.63129  1.22971 11.00000  0.21648   8.20
N003  3  0.50031  0.61984  1.13250 11.00000  0.20515   7.11
N004  3  0.50656  0.54431  1.37436 11.00000  0.16640   7.01
C005  1  0.53875  0.58682  1.40513 11.00000  0.13153   6.89
C006  1  0.50000  0.50000  1.50000 10.25000  0.17654   6.43
C007  1  0.46520  0.55788  1.25261 11.00000  0.14395   6.08
C008  1  0.49932  0.70811  0.75147 11.00000  0.10140   5.87
C009  1  0.53095  0.95299  0.01889 11.00000  0.17080   5.64
C00A  1  0.51093  0.89976  0.15107 11.00000  0.16903   5.55
C00B  1  0.52718  0.76017  0.77923 11.00000  0.20581   5.51
C00C  1  0.48180  0.75332  0.45530 11.00000  0.16828   4.99
C00D  1  0.50304  0.95303 -0.12593 11.00000  0.18082   4.91
C00E  1  0.51411  0.67048  1.01320 11.00000  0.17993   4.86
C00F  1  0.50000  1.00000 -0.25000 10.25000  0.13339   4.76
C00G  1  0.54357  0.76439  0.95553 11.00000  0.18243   4.65
C00H  1  0.51239  0.60542  1.27248 11.00000  0.31034   4.38
O00I  4  0.52819  0.79278  0.64130 11.00000  0.30212   4.27
C00J  1  0.35949  0.76433  0.79629 11.00000  0.27714   4.25
C00K  1  0.46082  0.91752 -0.12964 11.00000  0.20237   4.03
C00L  1  0.48055  0.83118  0.22971 11.00000  0.22306   3.95
O00M  4  0.55741  0.61663  1.30020 11.00000  0.24164   3.82
C00N  1  0.48165  0.87393  0.07843 11.00000  0.20406   3.79
C00O  1  0.49918  0.67918  0.88474 11.00000  0.15487   3.68
C00P  1  0.37628  0.81165  0.67328 11.00000  0.29781   3.24
O00Q  4  0.50525  0.84151  0.43251 11.00000  0.31830   3.20
C00R  1  0.35121  0.76859  0.61141 11.00000  0.28917   3.14
O00S  4  0.54092  0.90926  0.21778 11.00000  0.58529   3.05
O00T  4  0.44465  0.75516  0.27583 11.00000  0.34839   3.04
HKLF 4
END
