TITL 0620_expF_1_3_expS_0_9_0620_b.res in I4(1)
REM Old TITL 0620 in I4(1)/a
REM SHELXT solution in I4(1): R1 0.400, Rweak 0.081, Alpha 0.220
REM <I/s>   0.000 for    0 systematic absences,  Orientation as input
REM Flack x = -9.990 ( 9.990 ) from   100 Parsons' quotients
REM Formula found by SHELXT:  C33 N16 O14

CELL  0.71073  26.6550  26.6550   7.5900   90.000   90.000   90.000
ZERR  108.000   0.0038   0.0038   0.0015    0.000    0.000    0.000
LATT -2
SYMM 1/2-X, 1/2-Y, 1/2+Z
SYMM -Y, 1/2+X, 1/4+Z
SYMM 1/2+Y, -X, 3/4+Z
SFAC C H N O
UNIT 108 108 108 108
L.S. 10
BOND
LIST 6
FMAP 2
PLAN 20
N001  3  0.38359  0.03762 -0.07872 11.00000  0.17478   9.40
N002  3  0.41442 -0.03067 -0.16957 11.00000  0.17431   9.12
N003  3  0.48299  0.25133  1.23702 11.00000  0.17366   9.00
N004  3  0.41652  0.03921  0.11010 11.00000  0.15236   8.55
N005  3  0.37897  0.00216 -0.17373 11.00000  0.17184   8.13
O006  4  0.47397  0.09099  0.58875 11.00000  0.22756   7.53
N007  3  0.53623  0.08773  0.32811 11.00000  0.16806   7.38
O008  4  0.53612  0.29619  1.00851 11.00000  0.24310   7.27
N009  3  0.51243  0.29195  1.19784 11.00000  0.28268   7.18
N00A  3  0.51458  0.16732  0.71050 11.00000  0.19856   6.87
C00B  1  0.50339  0.04643  0.31932 11.00000  0.11665   6.57
C00C  1  0.54496  0.13247  0.45474 11.00000  0.15937   6.48
C00D  1  0.50000  0.00000  0.20157 10.50000  0.14738   6.27
C00E  1  0.45756  0.00699  0.07988 11.00000  0.11511   6.20
C00F  1  0.47138  0.05051  0.44577 11.00000  0.13543   6.17
C00G  1  0.45004 -0.03541 -0.05546 11.00000  0.11550   6.06
C00H  1  0.49940  0.16867  0.85466 11.00000  0.21369   5.76
C00I  1  0.50998  0.13275  0.58436 11.00000  0.15131   5.09
C00J  1  0.48429  0.21197  1.11119 11.00000  0.16968   5.09
O00K  4  0.45297  0.25410  1.41803 11.00000  0.28356   5.07
O00L  4  0.53511  0.26239  0.88669 11.00000  0.22542   4.60
C00M  1  0.36903  0.00214 -0.02381 11.00000  0.20747   4.29
C00N  1  0.50190  0.20733  0.95785 11.00000  0.14261   4.26
C00O  1  0.46743  0.13341  0.91058 11.00000  0.26527   3.98
C00P  1  0.38135  0.05527  0.01886 11.00000  0.17316   3.87
O00Q  4  0.39834 -0.04002 -0.26722 11.00000  0.36176   3.78
O00R  4  0.54133  0.26327  0.71784 11.00000  0.25187   3.70
C00S  1  0.33193  0.02264 -0.27049 11.00000  0.18416   3.70
O00T  4  0.72824  0.35630  0.92340 11.00000  0.39333   3.13
C00U  1  0.56512  0.27450  0.76838 11.00000  0.27427   3.12
C00V  1  0.34130 -0.00885 -0.41803 11.00000  0.21229   3.11
C00W  1  0.66940  0.34969  0.79900 11.00000  0.31297   3.07
HKLF 4
END
