TITL 0620_expF_1_1_expS_1_3_0620_b.res in I-4
REM Old TITL 0620 in I4(1)/a
REM SHELXT solution in I-4: R1 0.539, Rweak 0.020, Alpha 0.151
REM <I/s>   0.000 for    0 systematic absences,  Orientation as input
REM Flack x = -9.990 ( 9.990 ) from    64 Parsons' quotients
REM Formula found by SHELXT:  C81 N21 O12

CELL  0.71073  26.6550  26.6550   7.5900   90.000   90.000   90.000
ZERR  108.000   0.0038   0.0038   0.0015    0.000    0.000    0.000
LATT -2
SYMM -X, -Y, Z
SYMM Y, -X, -Z
SYMM -Y, X, -Z
SFAC C H N O
UNIT 108 108 108 108
L.S. 10
BOND
LIST 6
FMAP 2
PLAN 20
O001  4  0.58984  0.52725  1.10020 11.00000  0.30398   9.49
O002  4  0.62047  0.45381  1.26957 11.00000  0.20979   9.24
N003  3  0.50000  0.50000  1.50000 10.25000  0.13117   8.48
N004  3  0.62601  0.48591  1.15883 11.00000  0.20619   8.32
N005  3  0.54062  0.49398  1.36892 11.00000  0.19189   7.87
N006  3  0.58586  0.46821  1.39805 11.00000  0.19186   7.44
N007  3  0.70360  0.50632  0.74154 11.00000  0.18994   6.90
C008  1  0.76114  0.47624  0.79376 11.00000  0.24159   6.18
C009  1  0.91401  0.53964 -0.16020 11.00000  0.16726   5.86
C00A  1  0.74950  0.52781  0.45294 11.00000  0.20514   5.81
C00B  1  0.77933  0.48074  0.66897 11.00000  0.20392   5.81
C00C  1  0.90898  0.47040  0.14123 11.00000  0.19004   5.66
C00D  1  0.55697  0.53190  1.24361 11.00000  0.20410   5.56
C00E  1  1.00000  0.50000 -0.25000 10.25000  0.18001   5.56
C00F  1  0.70524  0.52779  0.59102 11.00000  0.19979   5.35
C00G  1  0.67165  0.50224  0.86952 11.00000  0.23620   5.20
C00H  1  0.87948  0.49914  0.10605 11.00000  0.24564   5.16
N00I  3  0.82672  0.51542  0.23003 11.00000  0.25371   4.86
C00J  1  0.65730  0.49565  1.02186 11.00000  0.24914   4.53
C00K  1  0.75397  0.54570  0.28656 11.00000  0.24739   4.49
C00L  1  0.94967  0.46521  0.01425 11.00000  0.21915   4.49
C00M  1  0.95275  0.50102 -0.12815 11.00000  0.20592   4.42
C00N  1  0.76505  0.45755  0.96291 11.00000  0.22649   4.29
C00O  1  0.89202  0.54281 -0.03884 11.00000  0.21504   3.96
C00P  1  0.77937  0.49482  0.50541 11.00000  0.28044   3.77
C00Q  1  0.62242  0.53820  0.82749 11.00000  0.30982   3.69
O00R  4  0.63617  0.62835  1.16256 11.00000  0.50256   3.55
C00S  1  0.60705  0.66491  1.33101 11.00000  0.23666   3.46
C00T  1  0.81479  0.51011  0.37095 11.00000  0.28928   3.44
C00U  1  0.84641  0.48958  0.43045 11.00000  0.26902   3.31
HKLF 4
END
