TITL 0620_expF_1_5_expS_0_8_0620_a.res in I4(1)/a
REM Old TITL 0620 in I4(1)/a
REM SHELXT solution in I4(1)/a: R1 0.490, Rweak 0.124, Alpha 0.148
REM <I/s>   0.000 for    0 systematic absences,  Orientation as input
REM Formula found by SHELXT:  C33 N12 O8

CELL  0.71073  26.6550  26.6550   7.5900   90.000   90.000   90.000
ZERR  108.000   0.0038   0.0038   0.0015    0.000    0.000    0.000
LATT  2
SYMM 1/2-X, -Y, 1/2+Z
SYMM 3/4-Y, 1/4+X, 1/4+Z
SYMM 3/4+Y, 3/4-X, 3/4+Z
SFAC C H N O
UNIT 108 108 108 108
L.S. 10
BOND
LIST 6
FMAP 2
PLAN 20
N001  3  0.61969  0.70695  0.88356 11.00000  0.17270   7.01
N002  3  0.58670  0.77646  0.73650 11.00000  0.18480   6.98
N003  3  0.58649  0.71214  1.01834 11.00000  0.14833   6.75
C004  1  0.54472  0.74705  0.99481 11.00000  0.13801   6.42
C005  1  0.62432  0.73960  0.76580 11.00000  0.16182   6.19
C006  1  0.55011  0.78545  0.85582 11.00000  0.13725   6.05
C007  1  0.74102  0.77425  0.10001 11.00000  0.16722   5.91
C008  1  0.66751  0.73426  0.63374 11.00000  0.18278   5.17
C009  1  0.67566  0.75133  0.47564 11.00000  0.22259   5.02
C00A  1  0.70430  0.77309  0.20783 11.00000  0.16773   5.00
C00B  1  0.70972  0.75007  0.35960 11.00000  0.15327   4.88
C00C  1  0.50000  0.75000  1.12500 10.25000  0.09052   4.81
O00D  4  0.74754  0.79163 -0.07107 11.00000  0.31403   4.53
O00E  4  0.64482  0.75906  0.44384 11.00000  0.41031   3.43
HKLF 4
END
