TITL 0620_expF_1_2_expS_0_9_0620_a.res in I4(1)
REM Old TITL 0620 in I4(1)/a
REM SHELXT solution in I4(1): R1 0.335, Rweak 0.032, Alpha 0.175
REM <I/s>   0.000 for    0 systematic absences,  Orientation as input
REM Flack x = -9.990 ( 9.990 ) from   114 Parsons' quotients
REM Formula found by SHELXT:  C27 N28 O6

CELL  0.71073  26.6550  26.6550   7.5900   90.000   90.000   90.000
ZERR  108.000   0.0038   0.0038   0.0015    0.000    0.000    0.000
LATT -2
SYMM 1/2-X, 1/2-Y, 1/2+Z
SYMM -Y, 1/2+X, 1/4+Z
SYMM 1/2+Y, -X, 3/4+Z
SFAC C H N O
UNIT 108 108 108 108
L.S. 10
BOND
LIST 6
FMAP 2
PLAN 20
N001  3  0.95206  0.38309  1.14353 11.00000  0.24148   9.45
N002  3  0.96013  0.41818  1.01521 11.00000  0.15012   8.35
C003  1  1.02766  0.41435  1.31063 11.00000  0.11114   8.16
N004  3  0.91442  0.53778  0.81618 11.00000  0.14919   8.16
N005  3  0.99776  0.45583  1.04263 11.00000  0.17278   7.80
N006  3  0.74565  0.52707  0.22080 11.00000  0.15084   7.71
N007  3  0.86888  0.50796  0.54699 11.00000  0.18453   7.70
O008  4  0.90488  0.47123  0.54237 11.00000  0.23044   7.58
N009  3  0.87494  0.53942  0.66610 11.00000  0.17169   7.57
N00A  3  1.03329  0.45696  1.18837 11.00000  0.15193   7.20
N00B  3  0.99567  0.38157  1.28203 11.00000  0.19335   6.79
N00C  3  0.95963  0.50753  0.79256 11.00000  0.14537   6.77
C00D  1  1.00000  0.50000  0.90129 10.50000  0.10807   6.31
C00E  1  0.71095  0.52493  0.11092 11.00000  0.17146   6.08
N00F  3  0.66837  0.49720 -0.31063 11.00000  0.22985   5.96
C00G  1  0.94043  0.46611  0.68317 11.00000  0.13459   5.82
C00H  1  0.79830  0.47298  0.00174 11.00000  0.20029   5.26
C00I  1  0.75894  0.48533 -0.14855 11.00000  0.24150   5.26
C00J  1  0.70905  0.49829 -0.09241 11.00000  0.20863   5.24
O00K  4  0.74258  0.54874  0.37466 11.00000  0.26521   5.09
C00L  1  0.61589  0.54471 -0.11453 11.00000  0.21478   4.86
O00M  4  0.75407  0.46019 -0.30711 11.00000  0.23745   4.79
C00N  1  0.96699  0.38942  1.13993 11.00000  0.25745   4.77
C00O  1  0.65742  0.51968 -0.14880 11.00000  0.20350   4.77
C00P  1  0.78859  0.49610  0.15894 11.00000  0.17235   4.69
C00Q  1  0.82986  0.52341  0.43549 11.00000  0.20149   3.92
C00R  1  0.85221  0.56611  0.74776 11.00000  0.28510   3.92
C00S  1  0.83760  0.50098  0.28481 11.00000  0.23807   3.67
N00T  3  0.71930  0.35288  0.12508 11.00000  0.38153   3.24
N00U  3  0.65392  0.53827  0.07709 11.00000  0.37041   3.21
N00V  3  0.66657  0.32187 -0.21671 11.00000  0.38511   3.13
HKLF 4
END
