TITL 2_expF_1_2_expS_0_8_2_b.res in Pn
REM Old TITL 1 in P2/n
REM SHELXT solution in Pn: R1 0.222, Rweak 0.067, Alpha 0.040
REM <I/s>   1.103 for  100 systematic absences,  Orientation as input
REM Formula found by SHELXT:  C12 N2 O8

CELL  0.71073   7.0400   9.2900  11.5500   90.000   97.870   90.000
ZERR   16.000   0.0014   0.0019   0.0023    0.000    0.030    0.000
LATT -1
SYMM 1/2+X, -Y, 1/2+Z
SFAC C N O
UNIT 16 16 16
L.S. 10
BOND
LIST 6
FMAP 2
PLAN 20
N001  2  0.58611  0.89283  0.43583 11.00000  0.02413  10.48
O002  3  0.77359  0.98615  0.60539 11.00000  0.02356   9.49
O003  3  0.54745  0.79626  0.33914 11.00000  0.03477   8.98
O004  3  0.66719  1.17067  0.72196 11.00000  0.00927   8.79
O005  3  0.58940  0.64863  0.17754 11.00000  0.05229   8.72
C006  1  0.32177  0.77294  0.71404 11.00000  0.02097   8.59
C007  1  0.36457  0.41475  0.37140 11.00000  0.02678   8.41
O008  3  0.14835  0.76217  0.68990 11.00000  0.02429   8.08
O009  3  0.45037  1.07953  0.55535 11.00000  0.04682   8.02
N00A  2  0.56113  0.51084  0.54343 11.00000  0.03264   7.26
C00B  1  0.24083  0.60679  0.48524 11.00000  0.02460   6.42
C00C  1  0.75718  0.89345  0.51368 11.00000  0.02225   6.37
O00D  3  0.85165  0.75441  0.30744 11.00000  0.04902   6.20
O00E  3  0.36606  0.31047  0.28239 11.00000  0.09730   5.87
C00F  1  0.44257  0.69540  0.65945 11.00000  0.02277   5.67
C00G  1  0.67912  0.74679  0.27294 11.00000  0.02140   5.42
C00H  1  0.44004  0.98321  0.46088 11.00000  0.02699   5.09
C00I  1  0.53094  0.42183  0.44485 11.00000  0.02982   5.09
C00J  1  0.62922  1.07666  0.62983 11.00000  0.02228   4.79
C00K  1  0.20211  0.51262  0.37813 11.00000  0.05334   4.35
C00L  1  0.40560  0.85216  0.82246 11.00000  0.02527   3.93
C00M  1  0.41137  0.60749  0.55886 11.00000  0.03352   3.15
HKLF 4
END
