TITL 2_expF_1_2_expS_1_1_2_a.res in P2(1)/n
REM Old TITL 1 in P2/n
REM SHELXT solution in P2(1)/n: R1 0.293, Rweak 0.021, Alpha 0.061
REM <I/s>   1.448 for  106 systematic absences,  Orientation as input
REM Formula found by SHELXT:  C10 O

CELL  0.71073   7.0400   9.2900  11.5500   90.000   97.870   90.000
ZERR   16.000   0.0014   0.0019   0.0023    0.000    0.030    0.000
LATT  1
SYMM 1/2-X, 1/2+Y, 1/2-Z
SFAC C N O
UNIT 16 16 16
L.S. 10
BOND
LIST 6
FMAP 2
PLAN 20
C001  1  0.66235  0.92241  0.72198 11.00000  0.03259   6.50
C002  1  0.55354  0.55203  0.34030 11.00000  0.03916   6.34
C003  1  0.78130  0.73791  0.60923 11.00000  0.04372   6.17
O004  3  0.85365  0.49421  0.30809 11.00000  0.06099   6.08
C005  1  0.58907  0.64410  0.43853 11.00000  0.03938   6.06
C006  1  0.46095  0.82962  0.55571 11.00000  0.04746   6.02
C007  1  0.67747  0.48733  0.27865 11.00000  0.04430   5.90
C008  1  0.75968  0.64210  0.51411 11.00000  0.04275   5.77
C009  1  0.63361  0.83167  0.62988 11.00000  0.04285   5.74
C00A  1  0.44004  0.73427  0.46079 11.00000  0.04921   5.69
C00B  1  0.58913  0.40128  0.17693 11.00000  0.05002   5.38
HKLF 4
END
