TITL 2_expF_0_9_expS_1_5_2_b.res in Pn
REM Old TITL 1 in P2/n
REM SHELXT solution in Pn: R1 0.283, Rweak 0.035, Alpha 0.011
REM <I/s>   1.505 for  100 systematic absences,  Orientation as input
REM Formula found by SHELXT:  C15 N3 O5

CELL  0.71073   7.0400   9.2900  11.5500   90.000   97.870   90.000
ZERR   16.000   0.0014   0.0019   0.0023    0.000    0.030    0.000
LATT -1
SYMM 1/2+X, -Y, 1/2+Z
SFAC C N O
UNIT 16 16 16
L.S. 10
BOND
LIST 6
FMAP 2
PLAN 20
O001  3  0.17481 -0.16994  0.72502 11.00000  0.04606   8.34
O002  3  0.65682  0.24187  0.69024 11.00000  0.05532   8.04
O003  3 -0.03648 -0.08350  0.55027 11.00000  0.06245   7.81
N004  2  0.06412  0.19864  0.33942 11.00000  0.04725   7.01
N005  2  0.28489  0.01077  0.60688 11.00000  0.04633   6.97
N006  2  0.74036  0.39523  0.48874 11.00000  0.04880   6.80
C007  1  0.91624  0.39030  0.56205 11.00000  0.04365   6.49
C008  1 -0.05096  0.01283  0.45850 11.00000  0.05040   6.48
C009  1  0.09237  0.10529  0.43866 11.00000  0.03750   6.40
C00A  1  0.91647  0.14937  0.82323 11.00000  0.04686   6.33
C00B  1  0.95722  0.30171  0.65917 11.00000  0.03744   6.13
C00C  1  0.71757  0.48367  0.38892 11.00000  0.05213   6.08
C00D  1  0.18642  0.25536  0.27644 11.00000  0.04048   6.02
C00E  1  0.83053  0.22943  0.71537 11.00000  0.04401   5.96
C00F  1  0.13541 -0.08034  0.63140 11.00000  0.04691   5.90
C00G  1  0.87283  0.58431  0.37061 11.00000  0.04060   5.81
C00H  1  0.85036  0.67696  0.28176 11.00000  0.03843   5.28
C00I  1  0.26153  0.10800  0.51788 11.00000  0.04480   5.17
C00J  1  1.07069  0.48496  0.53764 11.00000  0.04330   5.02
C00K  1  1.04288  0.57391  0.43624 11.00000  0.05185   4.74
C00L  1  0.09677  0.34723  0.17677 11.00000  0.05307   4.72
O00M  3  0.36379  0.25498  0.30665 11.00000  0.05616   4.34
O00N  3 -0.07069  0.02428  0.41733 11.00000  0.42250   3.06
HKLF 4
END
