TITL 2_expF_1_2_expS_0_7_2_a.res in Pn
REM Old TITL 1 in P2/n
REM SHELXT solution in Pn: R1 0.228, Rweak 0.101, Alpha 0.076
REM <I/s>   1.031 for  100 systematic absences,  Orientation as input
REM Formula found by SHELXT:  C11 N2 O8

CELL  0.71073   7.0400   9.2900  11.5500   90.000   97.870   90.000
ZERR   16.000   0.0014   0.0019   0.0023    0.000    0.030    0.000
LATT -1
SYMM 1/2+X, -Y, 1/2+Z
SFAC C N O
UNIT 16 16 16
L.S. 10
BOND
LIST 6
FMAP 2
PLAN 20
O001  3  0.26002  0.10565  0.51540 11.00000  0.00216   9.80
O002  3  0.04612  0.20306  0.33942 11.00000  0.01733   8.70
O003  3  1.04010  0.58237  0.44704 11.00000  0.04649   8.60
O004  3  0.82367  0.68193  0.27316 11.00000  0.03149   8.26
O005  3  0.64439  0.23915  0.68906 11.00000  0.02107   7.27
O006  3  0.09241  0.34981  0.17596 11.00000  0.01889   7.21
N007  2  1.05937  0.48992  0.53809 11.00000  0.02152   7.08
N008  2  0.72702  0.48442  0.38574 11.00000  0.01560   6.95
C009  1  0.17467  0.26123  0.27942 11.00000  0.02590   6.71
C00A  1  0.13372 -0.07215  0.62978 11.00000  0.00667   6.30
C00B  1  0.81676  0.23520  0.72105 11.00000  0.00866   6.18
O00C  3  0.34777  0.25204  0.30709 11.00000  0.02857   5.82
C00D  1  0.90809  0.40031  0.55933 11.00000  0.01739   5.69
C00E  1  0.08139  0.11317  0.43645 11.00000  0.01740   5.63
C00F  1  0.87445  0.59105  0.37022 11.00000  0.02759   5.46
C00G  1  0.29458  0.01231  0.60491 11.00000  0.02744   5.04
C00H  1  0.93746  0.30577  0.65940 11.00000  0.02190   4.53
C00I  1 -0.05937  0.01560  0.45775 11.00000  0.01951   4.40
O00J  3  0.15083 -0.16861  0.71800 11.00000  0.02744   4.24
C00K  1  0.91277  0.14583  0.82404 11.00000  0.05894   3.87
C00L  1 -0.04324 -0.07760  0.55443 11.00000  0.01719   3.31
HKLF 4
END
