TITL 2_expF_0_9_expS_1_2_2_b.res in Pn
REM Old TITL 1 in P2/n
REM SHELXT solution in Pn: R1 0.229, Rweak 0.040, Alpha 0.040
REM <I/s>   1.201 for  100 systematic absences,  Orientation as input
REM Formula found by SHELXT:  C8 N7 O7

CELL  0.71073   7.0400   9.2900  11.5500   90.000   97.870   90.000
ZERR   16.000   0.0014   0.0019   0.0023    0.000    0.030    0.000
LATT -1
SYMM 1/2+X, -Y, 1/2+Z
SFAC C N O
UNIT 16 16 16
L.S. 10
BOND
LIST 6
FMAP 2
PLAN 20
O001  3  0.54768  0.69535  0.34054 11.00000  0.04411   9.78
N002  2  0.41699  0.89236  0.56317 11.00000  0.02907   9.70
N003  2  0.63957  0.41457  0.63060 11.00000  0.03308   8.72
N004  2  0.32674  0.74085  0.72304 11.00000  0.03332   8.46
O005  3  0.77236  0.60606  0.52047 11.00000  0.03289   8.27
O006  3  0.45210  0.50956  0.45897 11.00000  0.05471   8.26
O007  3  0.85081  0.75610  0.31142 11.00000  0.04348   7.79
O008  3  0.54218  1.07433  0.44656 11.00000  0.04528   7.56
O009  3  0.33485  1.16670  0.27761 11.00000  0.02070   7.41
N00A  2  0.78699  0.50787  0.61982 11.00000  0.06476   7.26
N00B  2  0.65694  0.31303  0.71965 11.00000  0.04810   7.09
N00C  2  0.22304  0.98582  0.39573 11.00000  0.01829   6.82
N00D  2  0.41164  0.65483  0.82375 11.00000  0.03628   6.55
O00E  3  0.14919  0.74364  0.69384 11.00000  0.03098   6.41
C00F  1  0.59279  0.85770  0.17625 11.00000  0.03343   5.91
C00G  1  0.46161  0.41553  0.55709 11.00000  0.03347   5.80
C00H  1  0.68389  0.76748  0.28137 11.00000  0.03003   5.11
C00I  1  0.44344  0.79867  0.66111 11.00000  0.01655   4.89
C00J  1  0.37634  1.07965  0.37020 11.00000  0.02977   4.84
C00K  1  0.56989  0.98204  0.54149 11.00000  0.02347   4.57
C00L  1  0.25532  0.89130  0.49337 11.00000  0.03853   4.56
C00M  1  0.59207  0.60669  0.43872 11.00000  0.03330   3.25
HKLF 4
END
