TITL 2_expF_1_1_expS_0_8_2_b.res in Pn
REM Old TITL 1 in P2/n
REM SHELXT solution in Pn: R1 0.225, Rweak 0.089, Alpha 0.074
REM <I/s>   1.051 for  100 systematic absences,  Orientation as input
REM Formula found by SHELXT:  C11 N2 O8

CELL  0.71073   7.0400   9.2900  11.5500   90.000   97.870   90.000
ZERR   16.000   0.0014   0.0019   0.0023    0.000    0.030    0.000
LATT -1
SYMM 1/2+X, -Y, 1/2+Z
SFAC C N O
UNIT 16 16 16
L.S. 10
BOND
LIST 6
FMAP 2
PLAN 20
O001  3  0.76317  0.39446  0.52115 11.00000  0.00681   8.93
O002  3  0.54297  0.30501  0.34355 11.00000  0.03181   8.58
O003  3  0.22000  0.01710  0.39978 11.00000  0.02829   8.33
O004  3  0.33411 -0.16819  0.28187 11.00000  0.00954   8.29
N005  2  0.32374  0.26009  0.72631 11.00000  0.01803   8.10
O006  3  0.40344  0.35272  0.82460 11.00000  0.03335   7.79
O007  3  0.14938  0.25745  0.69656 11.00000  0.02309   7.04
N008  2  0.41569  0.11013  0.56629 11.00000  0.02707   7.01
C009  1  0.64121  0.58024  0.63520 11.00000  0.01655   6.82
C00A  1  0.53976 -0.08023  0.45532 11.00000  0.01739   6.50
C00B  1  0.44816  0.49100  0.46409 11.00000  0.02123   6.34
O00C  3  0.85062  0.24529  0.31400 11.00000  0.03360   6.12
C00D  1  0.56654  0.01785  0.54412 11.00000  0.01475   5.59
C00E  1  0.45628  0.57707  0.56720 11.00000  0.02798   5.58
C00F  1  0.37923 -0.08179  0.37298 11.00000  0.02102   5.28
C00G  1  0.59059  0.39508  0.44340 11.00000  0.01989   5.08
C00H  1  0.43719  0.20093  0.66329 11.00000  0.01089   4.98
C00I  1  0.68050  0.23243  0.28411 11.00000  0.02681   4.80
O00J  3  0.64948  0.69350  0.72408 11.00000  0.07460   4.46
C00K  1  0.58694  0.14936  0.17540 11.00000  0.03016   4.36
C00L  1  0.78201  0.49139  0.62323 11.00000  0.03014   3.83
HKLF 4
END
