TITL 2_expF_0_9_expS_1_2_2_c.res in P2(1)
REM Old TITL 1 in P2/n
REM SHELXT solution in P2(1): R1 0.245, Rweak 0.045, Alpha 0.097
REM <I/s>   2.224 for    6 systematic absences,  Orientation as input
REM Formula found by SHELXT:  C14 N5 O3

CELL  0.71073   7.0400   9.2900  11.5500   90.000   97.870   90.000
ZERR   16.000   0.0014   0.0019   0.0023    0.000    0.030    0.000
LATT -1
SYMM -X, 1/2+Y, -Z
SFAC C N O
UNIT 16 16 16
L.S. 10
BOND
LIST 6
FMAP 2
PLAN 20
N001  2  0.16170  0.38813  0.80920 11.00000  0.02816   7.28
N002  2  0.08867  0.66961  0.52306 11.00000  0.02638   7.12
C003  1  0.61827  0.41274  0.12350 11.00000  0.02863   6.84
N004  2  0.19310  0.30764  0.90986 11.00000  0.02675   6.83
C005  1  0.07234  0.23063  0.97244 11.00000  0.02752   6.79
N006  2  0.65767  0.85056  0.57221 11.00000  0.03755   6.75
N007  2  0.30178  0.58068  0.69522 11.00000  0.04212   6.74
C008  1  0.47014  0.51273  0.13969 11.00000  0.03097   6.41
O009  3 -0.10755  0.24690  0.93768 11.00000  0.04296   6.30
C00A  1  0.30727  0.48426  0.78996 11.00000  0.03148   5.92
C00B  1  0.48478  0.60270  0.23497 11.00000  0.03188   5.81
O00C  3  0.40400  0.75899  0.44457 11.00000  0.04192   5.72
C00D  1  0.70284  0.70681  0.40831 11.00000  0.02986   5.64
C00E  1 -0.03211  0.48578  0.63934 11.00000  0.03667   5.44
C00F  1 -0.00414  0.38800  0.73621 11.00000  0.02839   5.41
O00G  3  0.58565  0.32186  0.03389 11.00000  0.04889   5.41
C00H  1  0.77759  0.42189  0.19407 11.00000  0.03246   5.24
C00I  1  0.56964  0.75439  0.46842 11.00000  0.03141   5.17
C00J  1  0.81391  0.51268  0.29174 11.00000  0.03674   5.01
C00K  1  0.66207  0.59638  0.31677 11.00000  0.03819   4.52
C00L  1  0.11510  0.57583  0.61592 11.00000  0.02991   4.49
C00M  1  0.16064  0.14944  1.07470 11.00000  0.04356   3.61
HKLF 4
END
