TITL 2_expF_1_4_expS_0_7_2_b.res in Pn
REM Old TITL 1 in P2/n
REM SHELXT solution in Pn: R1 0.228, Rweak 0.059, Alpha 0.046
REM <I/s>   1.118 for  100 systematic absences,  Orientation as input
REM Formula found by SHELXT:  C15 N2 O5

CELL  0.71073   7.0400   9.2900  11.5500   90.000   97.870   90.000
ZERR   16.000   0.0014   0.0019   0.0023    0.000    0.030    0.000
LATT -1
SYMM 1/2+X, -Y, 1/2+Z
SFAC C N O
UNIT 16 16 16
L.S. 10
BOND
LIST 6
FMAP 2
PLAN 20
O001  3  0.72621  0.51078  0.38708 11.00000  0.03894   8.78
C002  1  0.17612  0.73140  0.28078 11.00000  0.01659   8.37
O003  3  0.73044  0.60552  0.47935 11.00000  0.03193   8.21
O004  3  0.95407  0.69904  0.65746 11.00000  0.03476   7.92
N005  2 -0.04073  1.07843  0.56152 11.00000  0.03864   7.19
N006  2  0.91036  0.84529  0.82245 11.00000  0.02692   6.82
C007  1  0.86996  0.41361  0.36849 11.00000  0.02522   6.64
C008  1  0.91579  0.61325  0.56255 11.00000  0.02778   6.50
O009  3  0.66004  0.74810  0.69201 11.00000  0.06247   6.49
C00A  1  0.84059  0.32585  0.27233 11.00000  0.01557   6.46
C00B  1  0.17093  1.17213  0.71675 11.00000  0.02291   6.26
C00C  1 -0.05964  0.98839  0.45470 11.00000  0.03985   6.24
O00D  3  0.35873  0.74044  0.30833 11.00000  0.02440   6.05
C00E  1  0.08954  0.89862  0.43924 11.00000  0.02627   5.31
C00F  1  0.05724  0.80023  0.33733 11.00000  0.03326   5.22
C00G  1  0.13518  1.07295  0.63011 11.00000  0.02863   5.20
C00H  1  1.03513  0.41806  0.45041 11.00000  0.02832   4.60
C00I  1  1.05964  0.51512  0.53725 11.00000  0.01932   4.34
C00J  1  0.24393  0.89235  0.50568 11.00000  0.03303   3.90
C00K  1  0.09113  0.64110  0.17755 11.00000  0.04733   3.65
C00L  1  0.29411  0.98384  0.60722 11.00000  0.03791   3.40
C00M  1  0.82005  0.75582  0.72389 11.00000  0.03005   3.35
HKLF 4
END
