TITL 2_expF_0_7_expS_1_2_2_b.res in P2(1)
REM Old TITL 1 in P2/n
REM SHELXT solution in P2(1): R1 0.242, Rweak 0.106, Alpha 0.208
REM <I/s>   1.996 for    6 systematic absences,  Orientation as input
REM Formula found by SHELXT:  C15 N3 O4

CELL  0.71073   7.0400   9.2900  11.5500   90.000   97.870   90.000
ZERR   16.000   0.0014   0.0019   0.0023    0.000    0.030    0.000
LATT -1
SYMM -X, 1/2+Y, -Z
SFAC C N O
UNIT 16 16 16
L.S. 10
BOND
LIST 6
FMAP 2
PLAN 20
N001  2  0.16856  0.38689  0.80904 11.00000  0.00955   7.89
O002  3  0.29456  0.57560  0.69530 11.00000  0.02649   7.84
O003  3 -0.10254  0.23889  0.93932 11.00000  0.02947   7.68
O004  3  0.58561  0.33820  0.02156 11.00000  0.01927   7.57
N005  2  0.46603  0.50788  0.14006 11.00000  0.03701   7.45
N006  2  0.20147  0.30963  0.91574 11.00000  0.02932   6.86
C007  1  0.06813  0.24038  0.96888 11.00000  0.01661   6.54
C008  1  0.69452  0.70655  0.40506 11.00000  0.00963   5.99
C009  1  0.48955  0.61150  0.23471 11.00000  0.01528   5.97
C00A  1  0.62374  0.43121  0.11779 11.00000  0.02514   5.93
C00B  1  0.15664  0.14862  1.06888 11.00000  0.02113   5.92
C00C  1  0.11278  0.59037  0.62086 11.00000  0.01526   5.74
C00D  1  0.57347  0.76862  0.47189 11.00000  0.02315   5.59
C00E  1  0.30913  0.48912  0.79353 11.00000  0.01986   5.48
C00F  1 -0.00764  0.39544  0.73603 11.00000  0.02713   5.26
C00G  1  0.81126  0.51767  0.28610 11.00000  0.02822   5.06
C00H  1  0.65737  0.85138  0.57659 11.00000  0.02445   4.98
O00I  3  0.40003  0.75080  0.44323 11.00000  0.03256   4.80
C00J  1 -0.02772  0.48216  0.63799 11.00000  0.01729   4.44
C00K  1  0.08748  0.68934  0.53675 11.00000  0.02319   4.37
C00L  1  0.64756  0.59348  0.31723 11.00000  0.03543   3.79
C00M  1  0.78399  0.41119  0.19423 11.00000  0.05438   3.49
HKLF 4
END
