TITL 2_expF_1_4_expS_1_5_2_b.res in P2(1)
REM Old TITL 1 in P2/n
REM SHELXT solution in P2(1): R1 0.615, Rweak 0.032, Alpha 0.116
REM <I/s> 118.341 for    6 systematic absences,  Orientation as input
REM Formula found by SHELXT:  C17 N8 O5

CELL  0.71073   7.0400   9.2900  11.5500   90.000   97.870   90.000
ZERR   16.000   0.0014   0.0019   0.0023    0.000    0.030    0.000
LATT -1
SYMM -X, 1/2+Y, -Z
SFAC C N O
UNIT 16 16 16
L.S. 10
BOND
LIST 6
FMAP 2
PLAN 20
N001  2  0.15879  0.64040  0.30843 11.00000  0.07923   8.16
O002  3  0.29078  0.82958  0.18896 11.00000  0.10281   7.83
O003  3 -0.09775  0.49407  0.44171 11.00000  0.09874   7.30
N004  2  0.30410  0.44678  1.08852 11.00000  0.07811   7.20
N005  2 -0.03135  0.73990  0.13754 11.00000  0.08590   7.20
N006  2  0.41350  0.07708  1.47299 11.00000  0.07540   7.10
N007  2  0.53689  0.26257  1.35874 11.00000  0.08050   6.90
N008  2  0.08714  0.92292  0.02408 11.00000  0.08048   6.84
N009  2  0.19821  0.55290  0.41174 11.00000  0.08241   6.62
C00A  1  0.38700  0.16486  1.38128 11.00000  0.07860   6.51
C00B  1  0.11548  0.83023  0.12182 11.00000  0.07195   6.51
C00C  1  0.34418  0.35081  1.18601 11.00000  0.07302   6.37
N00D  2  0.43295  0.50290  1.03087 11.00000  0.09422   6.29
C00E  1  0.51227  0.35631  1.26381 11.00000  0.07085   6.28
C00F  1  0.30906  0.73435  0.29214 11.00000  0.07686   5.82
C00G  1  0.06844  0.48201  0.46758 11.00000  0.07506   5.65
C00H  1  0.20929  0.17017  1.30543 11.00000  0.07086   5.35
C00I  1  0.18757  0.25623  1.20953 11.00000  0.07423   5.21
C00J  1  0.62967  0.40648  1.24742 11.00000  0.16480   5.03
C00K  1  0.34364  0.59344  0.92682 11.00000  0.08436   4.85
C00L  1 -0.01232  0.64310  0.23574 11.00000  0.07807   4.62
O00M  3  0.12422  0.69954  0.66942 11.00000  0.27332   3.92
C00N  1  0.60033  0.50570  1.05939 11.00000  0.06426   3.81
C00O  1  0.09781  0.59734  0.77624 11.00000  0.17548   3.47
C00P  1  0.15743  0.64685  0.74121 11.00000  0.24940   3.26
C00Q  1  0.68266  0.55725  1.18848 11.00000  0.19513   3.16
O00R  3  0.62731  0.69126  1.28191 11.00000  0.21477   3.10
C00S  1  0.63307  0.64921  1.21446 11.00000  0.19064   3.08
O00T  3  0.15453  0.46187  0.72982 11.00000  0.25554   3.07
C00U  1  0.15746  0.39355  0.57023 11.00000  0.08902   3.01
HKLF 4
END
