TITL 2_expF_0_8_expS_0_9_2_a.res in Pn
REM Old TITL 1 in P2/n
REM SHELXT solution in Pn: R1 0.246, Rweak 0.175, Alpha 0.106
REM <I/s>   0.961 for  100 systematic absences,  Orientation as input
REM Formula found by SHELXT:  C11 N2 O8

CELL  0.71073   7.0400   9.2900  11.5500   90.000   97.870   90.000
ZERR   16.000   0.0014   0.0019   0.0023    0.000    0.030    0.000
LATT -1
SYMM 1/2+X, -Y, 1/2+Z
SFAC C N O
UNIT 16 16 16
L.S. 10
BOND
LIST 6
FMAP 2
PLAN 20
O001  3  0.35921  0.73757  0.30579 11.00000  0.01694  10.68
N002  2  0.91124  0.60873  0.55537 11.00000  0.00010  10.32
O003  3  0.72701  0.51479  0.38865 11.00000  0.02152   9.03
O004  3  0.94470  0.70506  0.65519 11.00000  0.01915   8.86
O005  3  1.03965  0.42472  0.43463 11.00000  0.01262   7.91
C006  1  0.14537  1.08520  0.62405 11.00000  0.01599   7.90
N007  2  0.91342  0.84461  0.82229 11.00000  0.01483   7.06
O008  3 -0.05891  0.98176  0.44512 11.00000  0.03479   6.92
O009  3  0.16204  1.16509  0.72176 11.00000  0.01653   6.78
C00A  1  0.17746  0.72906  0.27376 11.00000  0.01532   6.77
C00B  1  0.73148  0.61198  0.47505 11.00000  0.01662   6.07
C00C  1  0.81953  0.75585  0.71150 11.00000  0.00715   6.00
C00D  1  0.82943  0.31309  0.27803 11.00000  0.01218   5.87
O00E  3  0.04196  0.81131  0.33392 11.00000  0.04628   5.37
C00F  1  0.24971  0.89812  0.50724 11.00000  0.01111   5.11
C00G  1  0.09511  0.64263  0.17771 11.00000  0.02273   4.70
C00H  1  1.05891  0.50899  0.53065 11.00000  0.01663   4.02
C00I  1 -0.04902  1.09046  0.53118 11.00000  0.06323   3.85
C00J  1  0.87822  0.42636  0.36201 11.00000  0.01356   3.83
C00K  1  0.29853  0.99016  0.61361 11.00000  0.02633   3.47
O00L  3  0.65638  0.75038  0.68563 11.00000  0.03304   3.08
HKLF 4
END
