TITL 2_expF_0_7_expS_1_5_2_a.res in P2(1)/n
REM Old TITL 1 in P2/n
REM SHELXT solution in P2(1)/n: R1 0.266, Rweak 0.048, Alpha 0.117
REM <I/s>   1.214 for  106 systematic absences,  Orientation as input
REM Formula found by SHELXT:  C9 N O

CELL  0.71073   7.0400   9.2900  11.5500   90.000   97.870   90.000
ZERR   16.000   0.0014   0.0019   0.0023    0.000    0.030    0.000
LATT  1
SYMM 1/2-X, 1/2+Y, 1/2-Z
SFAC C N O
UNIT 16 16 16
L.S. 10
BOND
LIST 6
FMAP 2
PLAN 20
N001  2  0.55164  0.44826  0.33935 11.00000  0.03357   6.51
C002  1  0.66421  0.07544  0.72199 11.00000  0.02191   6.29
O003  3  0.84983  0.50647  0.30836 11.00000  0.04329   6.25
C004  1  0.67828  0.51187  0.27860 11.00000  0.02606   6.12
C005  1  0.78110  0.26409  0.60988 11.00000  0.03010   6.04
C006  1  0.58821  0.35734  0.43829 11.00000  0.02775   6.03
C007  1  0.63287  0.17025  0.63007 11.00000  0.02933   5.96
C008  1  0.76042  0.35697  0.51445 11.00000  0.03013   5.69
C009  1  0.46125  0.17073  0.55509 11.00000  0.03150   5.65
C00A  1  0.43923  0.26445  0.45930 11.00000  0.03117   5.50
C00B  1  0.59024  0.60120  0.17657 11.00000  0.03152   5.41
HKLF 4
END
