TITL 2_expF_1_3_expS_0_5_2_a.res in Pn
REM Old TITL 1 in P2/n
REM SHELXT solution in Pn: R1 0.250, Rweak 0.207, Alpha 0.073
REM <I/s>   0.945 for  100 systematic absences,  Orientation as input
REM Formula found by SHELXT:  C8 N3 O7

CELL  0.71073   7.0400   9.2900  11.5500   90.000   97.870   90.000
ZERR   16.000   0.0014   0.0019   0.0023    0.000    0.030    0.000
LATT -1
SYMM 1/2+X, -Y, 1/2+Z
SFAC C N O
UNIT 16 16 16
L.S. 10
BOND
LIST 6
FMAP 2
PLAN 20
O001  3  0.14616 -0.08121  0.62270 11.00000  0.00022  10.31
O002  3 -0.05223  0.01529  0.45378 11.00000  0.00828   9.35
O003  3  0.16873 -0.16915  0.71465 11.00000  0.01043   8.27
O004  3  0.91908  0.39171  0.55385 11.00000  0.00010   8.24
O005  3  0.65218  0.24407  0.68110 11.00000  0.02154   7.61
O006  3  0.26013  0.10628  0.50605 11.00000  0.03335   7.41
C007  1  0.18965  0.26582  0.27536 11.00000  0.01547   6.87
N008  2  0.94717  0.30005  0.64936 11.00000  0.01150   6.67
N009  2  1.05223  0.57655  0.43995 11.00000  0.00870   6.61
C00A  1  0.83077  0.23741  0.71419 11.00000  0.00661   6.07
C00B  1  0.29358  0.00570  0.59909 11.00000  0.01075   6.07
C00C  1  0.11127  0.34850  0.18021 11.00000  0.01049   5.79
C00D  1  0.04170  0.19980  0.32806 11.00000  0.01824   5.58
C00E  1  0.35537  0.25825  0.30272 11.00000  0.00197   5.15
O00F  3  0.73003  0.47970  0.37841 11.00000  0.04006   5.01
C00G  1  0.92526  0.14886  0.81979 11.00000  0.00302   4.64
N00H  2  0.84078  0.68651  0.26980 11.00000  0.03639   3.97
C00I  1  0.74815  0.39656  0.47485 11.00000  0.01627   3.48
HKLF 4
END
