TITL 2_expF_1_1_expS_0_9_2_c.res in P2(1)
REM Old TITL 1 in P2/n
REM SHELXT solution in P2(1): R1 0.240, Rweak 0.058, Alpha 0.124
REM <I/s>   2.384 for    6 systematic absences,  Orientation as input
REM Formula found by SHELXT:  C16 N2 O4

CELL  0.71073   7.0400   9.2900  11.5500   90.000   97.870   90.000
ZERR   16.000   0.0014   0.0019   0.0023    0.000    0.030    0.000
LATT -1
SYMM -X, 1/2+Y, -Z
SFAC C N O
UNIT 16 16 16
L.S. 10
BOND
LIST 6
FMAP 2
PLAN 20
O001  3  0.20512  0.29317  0.91138 11.00000  0.04148   8.13
N002  2  0.16252  0.39116  0.81025 11.00000  0.02392   7.80
C003  1  0.07243  0.23218  0.96915 11.00000  0.02275   7.35
N004  2 -0.03075  0.48370  0.64461 11.00000  0.03658   6.76
C005  1  0.08358  0.67904  0.53288 11.00000  0.01739   6.45
O006  3  0.39578  0.74443  0.44046 11.00000  0.03087   6.18
C007  1  0.48680  0.59662  0.23493 11.00000  0.02587   6.10
O008  3  0.58893  0.33120  0.02267 11.00000  0.03835   5.99
C009  1  0.29923  0.56913  0.69258 11.00000  0.02667   5.95
C00A  1  0.11934  0.57013  0.61580 11.00000  0.02477   5.87
O00B  3 -0.09905  0.22921  0.94193 11.00000  0.04879   5.87
C00C  1  0.80286  0.50522  0.28845 11.00000  0.03545   5.66
C00D  1  0.61443  0.40861  0.12369 11.00000  0.02951   5.56
C00E  1  0.77892  0.41038  0.19691 11.00000  0.03327   5.45
C00F  1  0.14773  0.14766  1.07092 11.00000  0.02388   5.34
C00G  1  0.31636  0.47709  0.79156 11.00000  0.02351   5.21
C00H  1  0.66962  0.85234  0.57666 11.00000  0.03349   5.14
C00I  1  0.46823  0.51064  0.13542 11.00000  0.03051   5.03
C00J  1 -0.00436  0.38380  0.73648 11.00000  0.02861   4.74
C00K  1  0.56957  0.75781  0.47212 11.00000  0.03191   4.35
C00L  1  0.69204  0.69068  0.40834 11.00000  0.02335   4.13
C00M  1  0.66013  0.60830  0.31434 11.00000  0.04546   3.93
HKLF 4
END
