TITL 2_expF_0_9_expS_1_4_2_a.res in P2(1)/n
REM Old TITL 1 in P2/n
REM SHELXT solution in P2(1)/n: R1 0.284, Rweak 0.024, Alpha 0.061
REM <I/s>   1.449 for  106 systematic absences,  Orientation as input
REM Formula found by SHELXT:  C10 O

CELL  0.71073   7.0400   9.2900  11.5500   90.000   97.870   90.000
ZERR   16.000   0.0014   0.0019   0.0023    0.000    0.030    0.000
LATT  1
SYMM 1/2-X, 1/2+Y, 1/2-Z
SFAC C N O
UNIT 16 16 16
L.S. 10
BOND
LIST 6
FMAP 2
PLAN 20
C001  1  0.66228  0.92317  0.72171 11.00000  0.02921   6.48
C002  1  0.55357  0.55274  0.34001 11.00000  0.03378   6.42
C003  1  0.67745  0.48686  0.27893 11.00000  0.03925   6.08
O004  3  0.85303  0.49389  0.30834 11.00000  0.05406   6.06
C005  1  0.58889  0.64434  0.43874 11.00000  0.03722   6.02
C006  1  0.78114  0.73696  0.60927 11.00000  0.04089   5.98
C007  1  0.63364  0.83076  0.63015 11.00000  0.03917   5.88
C008  1  0.46057  0.82925  0.55611 11.00000  0.04357   5.84
C009  1  0.75970  0.64223  0.51452 11.00000  0.03926   5.78
C00A  1  0.43919  0.73471  0.46096 11.00000  0.04248   5.58
C00B  1  0.59039  0.40072  0.17701 11.00000  0.04392   5.31
HKLF 4
END
