TITL 2_expF_0_8_expS_0_6_2_a.res in Pn
REM Old TITL 1 in P2/n
REM SHELXT solution in Pn: R1 0.282, Rweak 0.407, Alpha 0.179
REM <I/s>   0.889 for   97 systematic absences,  Orientation as input
REM Formula found by SHELXT:  C9 O9

CELL  0.71073   7.0400   9.2900  11.5500   90.000   97.870   90.000
ZERR   16.000   0.0014   0.0019   0.0023    0.000    0.030    0.000
LATT -1
SYMM 1/2+X, -Y, 1/2+Z
SFAC C N O
UNIT 16 16 16
L.S. 10
BOND
LIST 6
FMAP 2
PLAN 20
O001  3  0.03619  0.60575  0.42942 11.00000  0.00010  11.37
O002  3  0.82138  1.08647  0.36472 11.00000  0.00010   9.24
O003  3  0.22115  0.51506  0.59975 11.00000  0.00010   9.05
O004  3  0.60493  0.74404  0.68270 11.00000  0.00070   8.84
O005  3  0.12127  0.32325  0.71430 11.00000  0.00010   8.76
O006  3 -0.01018  0.69317  0.32930 11.00000  0.01485   8.65
C007  1  0.12294  0.76218  0.27360 11.00000  0.00010   8.04
O008  3  0.04139  0.85210  0.17409 11.00000  0.00200   7.90
C009  1  0.76519  0.72485  0.71285 11.00000  0.01558   5.66
C00A  1  0.22322  0.61362  0.51352 11.00000  0.00079   5.52
C00B  1  1.00566  0.98283  0.52903 11.00000  0.00010   5.38
C00C  1  0.70012  0.90057  0.48252 11.00000  0.01340   4.85
C00D  1 -0.11126  0.40863  0.53509 11.00000  0.00413   4.83
O00E  3  0.87822  0.79033  0.65031 11.00000  0.02124   4.70
O00F  3  0.31286  0.76107  0.30066 11.00000  0.00918   4.40
C00G  1  0.97293  1.06024  0.42773 11.00000  0.00010   4.01
C00H  1  0.85010  0.63059  0.82591 11.00000  0.02984   3.43
C00I  1  1.11126  1.14935  0.40543 11.00000  0.05501   3.03
HKLF 4
END
