TITL 2_expF_0_7_expS_0_8_2_a.res in Pn
REM Old TITL 1 in P2/n
REM SHELXT solution in Pn: R1 0.273, Rweak 0.310, Alpha 0.179
REM <I/s>   0.893 for  100 systematic absences,  Orientation as input
REM Formula found by SHELXT:  C8 N3 O9

CELL  0.71073   7.0400   9.2900  11.5500   90.000   97.870   90.000
ZERR   16.000   0.0014   0.0019   0.0023    0.000    0.030    0.000
LATT -1
SYMM 1/2+X, -Y, 1/2+Z
SFAC C N O
UNIT 16 16 16
L.S. 10
BOND
LIST 6
FMAP 2
PLAN 20
O001  3  0.10215  0.35078  0.22385 11.00000  0.00010  10.21
N002  2  0.14708 -0.08220  0.67697 11.00000  0.00010   9.92
O003  3  0.96680  0.30843  0.71353 11.00000  0.00289   9.79
C004  1  0.76858  0.40079  0.53399 11.00000  0.00756   9.73
C005  1  0.83143  0.23756  0.77615 11.00000  0.00010   9.51
N006  2  0.91372  0.40787  0.61771 11.00000  0.02825   9.48
O007  3  0.37582  0.26445  0.36023 11.00000  0.01261   9.11
O008  3  0.84623  0.67859  0.31926 11.00000  0.02140   8.37
O009  3  0.70451  0.49516  0.42656 11.00000  0.04480   7.88
N00A  2  1.06533  0.49023  0.58773 11.00000  0.00010   7.30
O00B  3  0.67581  0.24487  0.74003 11.00000  0.00656   5.79
C00C  1 -0.06533  0.02281  0.50973 11.00000  0.02504   5.55
C00D  1  1.05880  0.58640  0.49109 11.00000  0.01987   5.54
C00E  1  0.10102  0.11492  0.49169 11.00000  0.00010   5.31
O00F  3 -0.02581 -0.07093  0.59936 11.00000  0.02341   4.86
C00G  1  0.18409  0.27718  0.33877 11.00000  0.00511   4.84
O00H  3  0.18164 -0.16407  0.76896 11.00000  0.01756   4.66
O00I  3  0.28517  0.01950  0.65907 11.00000  0.00976   4.66
C00J  1  0.28775  0.12332  0.56186 11.00000  0.00122   4.12
C00K  1  0.07986  0.21130  0.39502 11.00000  0.01895   3.99
HKLF 4
END
