TITL 2_expF_0_7_expS_1_1_2_b.res in P2(1)
REM Old TITL 1 in P2/n
REM SHELXT solution in P2(1): R1 0.249, Rweak 0.141, Alpha 0.188
REM <I/s>   1.842 for    6 systematic absences,  Orientation as input
REM Formula found by SHELXT:  C10 N4 O8

CELL  0.71073   7.0400   9.2900  11.5500   90.000   97.870   90.000
ZERR   16.000   0.0014   0.0019   0.0023    0.000    0.030    0.000
LATT -1
SYMM -X, 1/2+Y, -Z
SFAC C N O
UNIT 16 16 16
L.S. 10
BOND
LIST 6
FMAP 2
PLAN 20
O001  3 -0.15988  0.39102  0.42670 11.00000  0.00351   9.33
O002  3 -0.20141  0.54571  0.58917 11.00000  0.03017   8.60
O003  3  0.38923  0.50084  0.93776 11.00000  0.01744   8.39
O004  3 -0.30520  0.71968  0.71041 11.00000  0.03781   8.15
N005  2 -0.11319  0.82454  0.88098 11.00000  0.03198   7.72
O006  3  0.46889  0.25555  0.63627 11.00000  0.03581   7.52
N007  2 -0.27590  0.81220  0.79905 11.00000  0.02888   7.45
N008  2  0.66648  0.34371  0.81666 11.00000  0.01552   7.40
N009  2 -0.08237  0.92161  0.96758 11.00000  0.00775   6.81
O00A  3  0.59022  0.07839  0.52153 11.00000  0.02889   6.78
C00B  1  0.57665  0.50082  0.96877 11.00000  0.01978   6.72
C00C  1 -0.06615  0.47356  0.52873 11.00000  0.01309   6.37
O00D  3  0.08997  0.48554  0.55693 11.00000  0.02143   6.04
C00E  1  0.49819  0.33964  0.73895 11.00000  0.01637   5.98
C00F  1  0.01147  0.62592  0.76901 11.00000  0.01050   5.83
C00G  1  0.03209  0.73049  0.85816 11.00000  0.01661   5.64
C00H  1  0.80493  0.15448  0.68891 11.00000  0.00916   5.59
C00I  1 -0.15421  0.62777  0.69457 11.00000  0.02063   5.48
C00J  1  0.69439  0.44373  0.91014 11.00000  0.00892   5.16
C00K  1  0.61934  0.16147  0.62100 11.00000  0.01021   4.83
C00L  1  0.81391  0.24919  0.79231 11.00000  0.00937   4.30
O00M  3  0.29279  0.73274  0.93344 11.00000  0.40945   3.44
HKLF 4
END
