TITL 2_expF_1_3_expS_0_7_2_c.res in P2(1)
REM Old TITL 1 in P2/n
REM SHELXT solution in P2(1): R1 0.245, Rweak 0.081, Alpha 0.141
REM <I/s>   2.166 for    6 systematic absences,  Orientation as input
REM Formula found by SHELXT:  C14 N5 O3

CELL  0.71073   7.0400   9.2900  11.5500   90.000   97.870   90.000
ZERR   16.000   0.0014   0.0019   0.0023    0.000    0.030    0.000
LATT -1
SYMM -X, 1/2+Y, -Z
SFAC C N O
UNIT 16 16 16
L.S. 10
BOND
LIST 6
FMAP 2
PLAN 20
O001  3  0.60658  0.75302  0.56180 11.00000  0.02938   7.85
O002  3  0.91517  0.68066  0.46670 11.00000  0.03022   7.74
N003  2  0.69242  0.49365  0.20606 11.00000  0.03397   7.43
N004  2  1.03322  0.48377  0.36402 11.00000  0.03977   7.32
N005  2  0.39216  0.40700  0.88023 11.00000  0.03307   7.27
N006  2  0.30449  0.69596  0.59178 11.00000  0.02792   7.12
N007  2  0.72161  0.58382  0.30338 11.00000  0.03261   7.04
C008  1  0.42775  0.75827  0.52301 11.00000  0.03067   6.67
C009  1  0.34024  0.61236  0.68956 11.00000  0.02211   6.53
C00A  1  1.00901  0.38263  0.26472 11.00000  0.02821   5.94
C00B  1  0.50804  0.59800  0.76437 11.00000  0.01662   5.85
C00C  1  0.84906  0.14948 -0.07110 11.00000  0.01689   5.73
C00D  1  0.83669  0.39812  0.18704 11.00000  0.02710   5.56
C00E  1  0.79969  0.29715  0.08853 11.00000  0.02051   5.50
C00F  1  0.93035  0.23316  0.03372 11.00000  0.01765   5.48
C00G  1  0.52889  0.51026  0.85877 11.00000  0.02286   5.35
C00H  1  0.33284  0.85052  0.42489 11.00000  0.04012   5.34
C00I  1  0.19411  0.42817  0.80568 11.00000  0.03026   5.03
C00J  1  0.41201  0.33496  0.97895 11.00000  0.01999   4.73
C00K  1  0.87661  0.56877  0.38060 11.00000  0.02294   4.70
O00L  3  1.09446  0.24253  0.05560 11.00000  0.04601   4.70
C00M  1  0.18808  0.52438  0.71221 11.00000  0.02753   4.18
HKLF 4
END
