TITL 2_expF_1_2_expS_1_3_2_c.res in P2(1)
REM Old TITL 1 in P2/n
REM SHELXT solution in P2(1): R1 0.355, Rweak 0.012, Alpha 0.045
REM <I/s>   1.845 for    6 systematic absences,  Orientation as input
REM Formula found by SHELXT:  C17 N3 O2

CELL  0.71073   7.0400   9.2900  11.5500   90.000   97.870   90.000
ZERR   16.000   0.0014   0.0019   0.0023    0.000    0.030    0.000
LATT -1
SYMM -X, 1/2+Y, -Z
SFAC C N O
UNIT 16 16 16
L.S. 10
BOND
LIST 6
FMAP 2
PLAN 20
N001  2  0.83849  0.60293  0.18536 11.00000  0.05878   6.69
N002  2  0.90899  0.32677  0.47239 11.00000  0.04587   6.56
N003  2  0.53426  0.48216  0.85761 11.00000  0.07824   6.51
C004  1  0.41506  0.67300  0.97202 11.00000  0.04329   6.42
C005  1  0.80144  0.69944  0.08923 11.00000  0.04424   6.42
C006  1  0.71052  0.42010  0.30811 11.00000  0.04874   6.32
C007  1  0.50669  0.38964  0.76353 11.00000  0.04948   6.28
C008  1  0.92916  0.76579  0.03104 11.00000  0.05210   6.15
C009  1  0.88232  0.41540  0.37691 11.00000  0.04822   5.95
C00A  1  0.21577  0.58092  0.80406 11.00000  0.05691   5.93
C00B  1  0.30598  0.30537  0.59130 11.00000  0.04632   5.83
C00C  1  0.68961  0.52534  0.21271 11.00000  0.05347   5.83
C00D  1  1.02921  0.51122  0.35988 11.00000  0.04312   5.81
O00E  3  1.10419  0.75603  0.05723 11.00000  0.06071   5.71
O00F  3  0.60570  0.24548  0.55916 11.00000  0.06467   5.69
C00G  1  0.19215  0.49446  0.70840 11.00000  0.05280   5.60
C00H  1  0.83958  0.84952 -0.07442 11.00000  0.05490   5.55
C00I  1  0.33738  0.39120  0.69011 11.00000  0.04217   5.35
C00J  1  0.38091  0.57840  0.88148 11.00000  0.05169   5.32
C00K  1  0.42896  0.23963  0.53042 11.00000  0.05033   5.17
C00L  1  1.01132  0.60345  0.26561 11.00000  0.04862   5.11
C00M  1  0.33928  0.15048  0.42851 11.00000  0.06063   4.66
HKLF 4
END
