TITL 2_expF_0_6_expS_1_3_2_b.res in P2(1)
REM Old TITL 1 in P2/n
REM SHELXT solution in P2(1): R1 0.247, Rweak 0.138, Alpha 0.206
REM <I/s>   1.860 for    6 systematic absences,  Orientation as input
REM Formula found by SHELXT:  C19 N O2

CELL  0.71073   7.0400   9.2900  11.5500   90.000   97.870   90.000
ZERR   16.000   0.0014   0.0019   0.0023    0.000    0.030    0.000
LATT -1
SYMM -X, 1/2+Y, -Z
SFAC C N O
UNIT 16 16 16
L.S. 10
BOND
LIST 6
FMAP 2
PLAN 20
O001  3  1.09832  0.24111  0.05632 11.00000  0.02150   8.83
N002  2  0.78978  0.29477  0.08944 11.00000  0.02665   6.97
C003  1  1.00588  0.40187  0.26288 11.00000  0.02292   6.49
C004  1  0.71540  0.56412  0.31035 11.00000  0.02147   6.41
C005  1  0.33865  0.60274  0.69487 11.00000  0.02461   6.38
C006  1  0.87573  0.57264  0.38276 11.00000  0.02483   6.29
C007  1  0.92499  0.22323  0.03523 11.00000  0.01682   6.16
C008  1  0.43422  0.75045  0.52456 11.00000  0.01943   6.11
C009  1  0.52414  0.51361  0.85952 11.00000  0.02095   6.08
C00A  1  0.90956  0.68038  0.47183 11.00000  0.01734   6.04
C00B  1  0.18931  0.49658  0.70649 11.00000  0.01928   5.97
C00C  1  0.35042  0.85201  0.43660 11.00000  0.02848   5.92
C00D  1  0.31372  0.69378  0.59043 11.00000  0.01347   5.88
O00E  3  0.41920  0.33111  0.97229 11.00000  0.03578   5.87
C00F  1  1.03926  0.48570  0.36168 11.00000  0.02877   5.85
C00G  1  0.83953  0.38762  0.18324 11.00000  0.02056   5.54
C00H  1  0.83591  0.14799 -0.08006 11.00000  0.01271   5.46
C00I  1  0.38917  0.41353  0.87742 11.00000  0.02122   5.36
C00J  1  0.19973  0.40395  0.79809 11.00000  0.02777   4.99
C00K  1  0.68671  0.46693  0.21190 11.00000  0.02269   4.52
C00L  1  0.51053  0.61133  0.76683 11.00000  0.02178   4.51
C00M  1  0.60527  0.75304  0.56333 11.00000  0.02519   3.83
HKLF 4
END
