TITL 2_expF_0_5_expS_1_4_2_a.res in Pn
REM Old TITL 1 in P2/n
REM SHELXT solution in Pn: R1 0.261, Rweak 0.195, Alpha 0.107
REM <I/s>   0.968 for  100 systematic absences,  Orientation as input
REM Formula found by SHELXT:  C10 N2 O7

CELL  0.71073   7.0400   9.2900  11.5500   90.000   97.870   90.000
ZERR   16.000   0.0014   0.0019   0.0023    0.000    0.030    0.000
LATT -1
SYMM 1/2+X, -Y, 1/2+Z
SFAC C N O
UNIT 16 16 16
L.S. 10
BOND
LIST 6
FMAP 2
PLAN 20
C001  1  0.87397  0.41907  0.36748 11.00000  0.00010  10.84
N002  2  0.09199  0.89568  0.43389 11.00000  0.00010  10.66
O003  3  0.65787  0.76072  0.69286 11.00000  0.02185   9.56
O004  3  0.05860  0.79569  0.33214 11.00000  0.01332   9.47
O005  3  0.28771  0.98567  0.60661 11.00000  0.00516   8.89
N006  2  0.18607  0.73683  0.27135 11.00000  0.01681   8.30
O007  3  0.18064  1.17210  0.72214 11.00000  0.01854   7.79
O008  3  1.05701  0.52844  0.53589 11.00000  0.04864   6.98
C009  1  0.92326  0.84622  0.82362 11.00000  0.01844   6.46
C00A  1  0.10639  0.64647  0.17638 11.00000  0.01312   6.34
C00B  1  0.73928  0.60932  0.48275 11.00000  0.01595   6.14
C00C  1  1.05627  0.41207  0.43958 11.00000  0.03796   5.60
C00D  1  0.82944  0.76413  0.71110 11.00000  0.01593   5.43
C00E  1  0.94556  0.68885  0.65199 11.00000  0.02971   5.17
C00F  1 -0.03531  1.07526  0.54888 11.00000  0.01597   5.08
C00G  1  0.25900  0.89750  0.51712 11.00000  0.02420   4.91
O00H  3  0.85858  0.31704  0.27962 11.00000  0.04822   4.39
O00I  3  0.35919  0.74415  0.30913 11.00000  0.02249   4.16
C00J  1 -0.05701  0.99729  0.45765 11.00000  0.00596   4.09
HKLF 4
END
