TITL 2_expF_1_2_expS_1_2_2_c.res in P2(1)
REM Old TITL 1 in P2/n
REM SHELXT solution in P2(1): R1 0.307, Rweak 0.015, Alpha 0.041
REM <I/s>   1.715 for    6 systematic absences,  Orientation as input
REM Formula found by SHELXT:  C17 N3 O2

CELL  0.71073   7.0400   9.2900  11.5500   90.000   97.870   90.000
ZERR   16.000   0.0014   0.0019   0.0023    0.000    0.030    0.000
LATT -1
SYMM -X, 1/2+Y, -Z
SFAC C N O
UNIT 16 16 16
L.S. 10
BOND
LIST 6
FMAP 2
PLAN 20
N001  2  0.80054  0.30293  0.08815 11.00000  0.05609   6.93
N002  2  0.84013  0.38336  0.18544 11.00000  0.05085   6.87
N003  2  0.41154  0.32372  0.97216 11.00000  0.04722   6.68
C004  1  0.91307  0.67118  0.47269 11.00000  0.03635   6.31
C005  1  0.53472  0.51274  0.85871 11.00000  0.05201   6.16
C006  1  0.51044  0.60577  0.76455 11.00000  0.05239   6.11
C007  1  1.03103  0.48501  0.35952 11.00000  0.04972   6.11
C008  1  0.21349  0.41209  0.80198 11.00000  0.04734   6.10
C009  1  0.93046  0.22884  0.03090 11.00000  0.04263   6.05
C00A  1  0.88281  0.57826  0.38095 11.00000  0.05135   6.04
C00B  1  0.70900  0.56922  0.31159 11.00000  0.05367   6.01
O00C  3  1.10237  0.23965  0.05667 11.00000  0.05730   5.83
C00D  1  0.68793  0.47780  0.21058 11.00000  0.05419   5.83
C00E  1  0.83996  0.15024 -0.07379 11.00000  0.04780   5.68
O00F  3  0.60551  0.75285  0.55971 11.00000  0.06362   5.63
C00G  1  0.30682  0.69685  0.59243 11.00000  0.03825   5.54
C00H  1  0.19295  0.50908  0.71033 11.00000  0.04968   5.44
C00I  1  0.38618  0.41391  0.87909 11.00000  0.04711   5.41
C00J  1  0.42522  0.75297  0.52942 11.00000  0.05478   5.41
C00K  1  1.01179  0.39257  0.26521 11.00000  0.04666   5.19
C00L  1  0.33661  0.59617  0.69032 11.00000  0.04583   5.16
C00M  1  0.34241  0.84976  0.42706 11.00000  0.06272   4.57
HKLF 4
END
