TITL 2_expF_1_4_expS_0_6_2_c.res in P2(1)
REM Old TITL 1 in P2/n
REM SHELXT solution in P2(1): R1 0.244, Rweak 0.111, Alpha 0.198
REM <I/s>   1.995 for    6 systematic absences,  Orientation as input
REM Formula found by SHELXT:  C15 N4 O4

CELL  0.71073   7.0400   9.2900  11.5500   90.000   97.870   90.000
ZERR   16.000   0.0014   0.0019   0.0023    0.000    0.030    0.000
LATT -1
SYMM -X, 1/2+Y, -Z
SFAC C N O
UNIT 16 16 16
L.S. 10
BOND
LIST 6
FMAP 2
PLAN 20
O001  3  0.39543  0.25031  0.43846 11.00000  0.02394   7.58
O002  3  0.08635  0.32169  0.52960 11.00000  0.01177   7.41
C003  1  0.56914  0.23935  0.47283 11.00000  0.01409   7.12
N004  2  0.15562  0.85169  1.07307 11.00000  0.02557   7.06
N005  2  0.31804  0.52023  0.78883 11.00000  0.02082   6.99
N006  2  0.46426  0.47256  0.13522 11.00000  0.03547   6.99
N007  2  0.69786  0.30984  0.41213 11.00000  0.02024   6.74
C008  1  0.65778  0.38433  0.30493 11.00000  0.02160   6.28
C009  1  0.20061  0.70757  0.90806 11.00000  0.01540   6.02
C00A  1  0.49284  0.39088  0.23412 11.00000  0.01647   5.91
C00B  1  0.61153  0.58563  0.11668 11.00000  0.02501   5.83
C00C  1  0.12010  0.42217  0.62128 11.00000  0.01946   5.70
C00D  1  0.78924  0.58687  0.20344 11.00000  0.01995   5.66
C00E  1  0.16606  0.60222  0.81718 11.00000  0.01330   5.59
C00F  1  0.29563  0.42837  0.68721 11.00000  0.02430   5.46
O00G  3 -0.10072  0.76481  0.94515 11.00000  0.04026   5.11
C00H  1 -0.02942  0.50229  0.64118 11.00000  0.01148   4.85
C00I  1  0.07443  0.76721  0.96810 11.00000  0.02213   4.67
C00J  1  0.58460  0.65427  0.02014 11.00000  0.04309   4.61
C00K  1 -0.01015  0.60603  0.73836 11.00000  0.02730   4.52
C00L  1  0.80180  0.49211  0.29432 11.00000  0.02950   3.57
C00M  1  0.65903  0.14831  0.57302 11.00000  0.03075   3.51
O00N  3 -0.14792  0.52630  0.57512 11.00000  0.36352   3.07
HKLF 4
END
