TITL 2_expF_0_5_expS_1_5_2_b.res in P2(1)
REM Old TITL 1 in P2/n
REM SHELXT solution in P2(1): R1 0.250, Rweak 0.162, Alpha 0.224
REM <I/s>   1.801 for    6 systematic absences,  Orientation as input
REM Formula found by SHELXT:  C13 N7 O2

CELL  0.71073   7.0400   9.2900  11.5500   90.000   97.870   90.000
ZERR   16.000   0.0014   0.0019   0.0023    0.000    0.030    0.000
LATT -1
SYMM -X, 1/2+Y, -Z
SFAC C N O
UNIT 16 16 16
L.S. 10
BOND
LIST 6
FMAP 2
PLAN 20
N001  2  0.07267  0.24685  0.97208 11.00000  0.03127   8.36
O002  3 -0.09729  0.21623  0.94212 11.00000  0.04310   8.35
N003  2  0.16478  0.39154  0.80724 11.00000  0.01620   7.66
N004  2  0.31341  0.47805  0.78550 11.00000  0.02722   7.17
N005  2  0.70734  0.69746  0.41306 11.00000  0.02604   7.14
N006  2  0.46985  0.51501  0.14226 11.00000  0.02621   6.84
N007  2  0.49378  0.60943  0.24043 11.00000  0.01814   6.73
N008  2  0.11819  0.58781  0.62467 11.00000  0.02100   6.71
C009  1  0.30053  0.58268  0.69704 11.00000  0.00820   6.49
C00A  1  0.07676  0.66838  0.53149 11.00000  0.02016   6.28
C00B  1  0.58819  0.32285  0.02485 11.00000  0.00620   6.00
C00C  1  0.66549  0.85122  0.57341 11.00000  0.02112   5.85
C00D  1  0.65620  0.60678  0.31706 11.00000  0.02961   5.68
C00E  1  0.19085  0.30001  0.90959 11.00000  0.00851   5.59
C00F  1  0.14982  0.14878  1.07356 11.00000  0.01552   5.54
C00G  1  0.61683  0.42963  0.11572 11.00000  0.02185   5.34
C00H  1 -0.03171  0.48989  0.63490 11.00000  0.01797   4.82
O00I  3  0.39681  0.74276  0.44109 11.00000  0.00604   4.68
C00J  1 -0.01375  0.39533  0.72771 11.00000  0.02198   4.57
C00K  1  0.77462  0.43099  0.19366 11.00000  0.03613   4.21
C00L  1  0.57000  0.76996  0.47112 11.00000  0.01157   3.89
C00M  1  0.80964  0.50864  0.29619 11.00000  0.02283   3.74
HKLF 4
END
