TITL 2_expF_0_5_expS_0_5_2_a.res in P2/m
REM Old TITL 1 in P2/n
REM SHELXT solution in P2/m: R1 0.153, Rweak 0.614, Alpha 0.099
REM <I/s>   0.000 for    0 systematic absences,  Orientation as input
REM Formula found by SHELXT:  C15 N4 O13 I

CELL  0.71073   7.0400   9.2900  11.5500   90.000   97.870   90.000
ZERR   16.000   0.0014   0.0019   0.0023    0.000    0.030    0.000
LATT  1
SYMM -X, Y, -Z
SFAC C N O I
UNIT 16 16 16 0
L.S. 10
BOND
LIST 6
FMAP 2
PLAN 20
I001  4  0.50000  0.50000  1.00000 10.25000  0.00010 198.94
C002  1  0.00000  0.00000  0.50000 10.25000  0.02947  13.46
O003  3  0.27566  0.00000  0.92979 10.50000  0.11793  12.46
O004  3  0.00000  0.19454  0.50000 10.50000  0.11203  10.47
O005  3  0.00000  0.50000  0.50000 10.25000  0.13714   9.80
O006  3  0.61187  0.32622  0.85921 11.00000  0.30272   7.18
N007  2  0.27837  0.37743  0.82233 11.00000  0.27977   6.89
C008  1  0.22234  0.30454  0.64817 11.00000  0.37860   6.41
C009  1  0.38708  0.15204  0.81388 11.00000  0.32526   5.89
C00A  1  0.08199  0.50000  0.87184 10.50000  0.39238   5.70
O00B  3  0.84658  0.12922  0.89935 11.00000  0.50051   5.42
C00C  1  0.61441  0.15164  0.75095 11.00000  0.41742   4.26
HKLF 4
END
