TITL 2_expF_1_5_expS_0_8_2_a.res in P2(1)/n
REM Old TITL 1 in P2/n
REM SHELXT solution in P2(1)/n: R1 0.276, Rweak 0.030, Alpha 0.064
REM <I/s>   1.391 for  106 systematic absences,  Orientation as input
REM Formula found by SHELXT:  C10 O

CELL  0.71073   7.0400   9.2900  11.5500   90.000   97.870   90.000
ZERR   16.000   0.0014   0.0019   0.0023    0.000    0.030    0.000
LATT  1
SYMM 1/2-X, 1/2+Y, 1/2-Z
SFAC C N O
UNIT 16 16 16
L.S. 10
BOND
LIST 6
FMAP 2
PLAN 20
C001  1  0.44817  0.44777  0.65972 11.00000  0.03213   6.41
C002  1  0.33750  0.07707  0.27853 11.00000  0.02867   6.34
C003  1  0.21886  0.26262  0.39053 11.00000  0.03796   6.19
O004  3  0.14925  0.50529  0.69167 11.00000  0.05379   6.13
C005  1  0.41238  0.35663  0.56154 11.00000  0.03523   6.06
C006  1  0.53714  0.17067  0.44396 11.00000  0.04077   6.01
C007  1  0.32105  0.51268  0.72176 11.00000  0.03505   5.94
C008  1  0.36734  0.16839  0.37026 11.00000  0.03763   5.70
C009  1  0.56109  0.26494  0.54023 11.00000  0.04016   5.68
C00A  1  0.23944  0.35684  0.48586 11.00000  0.03801   5.67
C00B  1  0.40958  0.60074  0.82345 11.00000  0.04126   5.46
HKLF 4
END
