TITL 2_expF_0_8_expS_1_5_2_a.res in P2(1)/n
REM Old TITL 1 in P2/n
REM SHELXT solution in P2(1)/n: R1 0.275, Rweak 0.029, Alpha 0.071
REM <I/s>   1.383 for  106 systematic absences,  Orientation as input
REM Formula found by SHELXT:  C10 O

CELL  0.71073   7.0400   9.2900  11.5500   90.000   97.870   90.000
ZERR   16.000   0.0014   0.0019   0.0023    0.000    0.030    0.000
LATT  1
SYMM 1/2-X, 1/2+Y, 1/2-Z
SFAC C N O
UNIT 16 16 16
L.S. 10
BOND
LIST 6
FMAP 2
PLAN 20
C001  1  0.66219  0.07704  0.72140 11.00000  0.02870   6.39
C002  1  0.55219  0.44782  0.34022 11.00000  0.03187   6.37
C003  1  0.78094  0.26275  0.60938 11.00000  0.03825   6.12
C004  1  0.67859  0.51255  0.27835 11.00000  0.03506   6.06
O005  3  0.85089  0.50546  0.30819 11.00000  0.05366   6.06
C006  1  0.58751  0.35681  0.43839 11.00000  0.03507   5.99
C007  1  0.46226  0.17069  0.55579 11.00000  0.04067   5.87
C008  1  0.63269  0.16847  0.62966 11.00000  0.03732   5.82
C009  1  0.76032  0.35649  0.51414 11.00000  0.03764   5.76
C00A  1  0.43909  0.26486  0.45984 11.00000  0.03987   5.60
C00B  1  0.59111  0.60080  0.17661 11.00000  0.04051   5.35
HKLF 4
END
