TITL 2_expF_0_9_expS_1_1_2_c.res in P2(1)
REM Old TITL 1 in P2/n
REM SHELXT solution in P2(1): R1 0.244, Rweak 0.063, Alpha 0.132
REM <I/s>   2.380 for    6 systematic absences,  Orientation as input
REM Formula found by SHELXT:  C15 N3 O4

CELL  0.71073   7.0400   9.2900  11.5500   90.000   97.870   90.000
ZERR   16.000   0.0014   0.0019   0.0023    0.000    0.030    0.000
LATT -1
SYMM -X, 1/2+Y, -Z
SFAC C N O
UNIT 16 16 16
L.S. 10
BOND
LIST 6
FMAP 2
PLAN 20
O001  3  0.30378  0.30591  0.58772 11.00000  0.03351   8.43
O002  3  0.91318  0.31100  0.46849 11.00000  0.03047   7.70
N003  2  0.38591  0.57607  0.88305 11.00000  0.03579   7.05
N004  2  1.03320  0.50350  0.36191 11.00000  0.04538   7.05
N005  2  0.19129  0.48235  0.70663 11.00000  0.03789   6.94
C006  1  0.43133  0.23643  0.52978 11.00000  0.02809   6.86
O007  3  0.60273  0.23538  0.55445 11.00000  0.05010   6.44
C008  1  0.34519  0.38956  0.68673 11.00000  0.02592   6.40
O009  3  1.10062  0.75011  0.06181 11.00000  0.02921   6.31
C00A  1  0.35100  0.14821  0.42573 11.00000  0.02269   6.24
C00B  1  0.51036  0.38794  0.76183 11.00000  0.01997   6.11
C00C  1  0.70821  0.42020  0.30506 11.00000  0.02252   5.93
C00D  1  0.83135  0.60303  0.19073 11.00000  0.02458   5.81
C00E  1  0.21244  0.57964  0.80576 11.00000  0.04810   5.75
C00F  1  0.92664  0.76021  0.02894 11.00000  0.02474   5.58
C00G  1  1.00884  0.60229  0.26866 11.00000  0.03387   5.51
C00H  1  0.41490  0.65559  0.97675 11.00000  0.02184   5.09
C00I  1  0.52982  0.47747  0.85803 11.00000  0.02223   5.03
C00J  1  0.83135  0.85179 -0.07202 11.00000  0.03458   4.93
C00K  1  0.79950  0.70628  0.09207 11.00000  0.02797   4.92
C00L  1  0.88058  0.41521  0.37777 11.00000  0.02979   4.78
C00M  1  0.68872  0.51077  0.21135 11.00000  0.02982   4.36
HKLF 4
END
