TITL 2_expF_1_1_expS_0_5_2_a.res in Pn
REM Old TITL 1 in P2/n
REM SHELXT solution in Pn: R1 0.267, Rweak 0.340, Alpha 0.157
REM <I/s>   0.902 for  100 systematic absences,  Orientation as input
REM Formula found by SHELXT:  C8 N3 O7

CELL  0.71073   7.0400   9.2900  11.5500   90.000   97.870   90.000
ZERR   16.000   0.0014   0.0019   0.0023    0.000    0.030    0.000
LATT -1
SYMM 1/2+X, -Y, 1/2+Z
SFAC C N O
UNIT 16 16 16
L.S. 10
BOND
LIST 6
FMAP 2
PLAN 20
O001  3  0.13653 -0.08546  0.63496 11.00000  0.00010  10.89
N002  2  0.92476  0.39416  0.57006 11.00000  0.00010  10.78
N003  2  0.82836  0.23922  0.73042 11.00000  0.01368   9.97
O004  3  0.95897  0.29816  0.66743 11.00000  0.00010   8.49
O005  3  0.72376  0.48654  0.39478 11.00000  0.00010   8.21
O006  3  0.84063  0.67236  0.28102 11.00000  0.00010   7.76
O007  3 -0.05993  0.01859  0.46509 11.00000  0.04216   6.69
N008  2  0.35833  0.25226  0.30811 11.00000  0.00402   6.63
C009  1  0.26998  0.09749  0.51528 11.00000  0.02173   6.43
C00A  1  0.91534  0.15443  0.82410 11.00000  0.00010   6.32
O00B  3  0.64883  0.24026  0.69325 11.00000  0.01414   5.95
C00C  1 -0.03487 -0.08100  0.56402 11.00000  0.01586   5.62
C00D  1  0.10037  0.35830  0.17590 11.00000  0.01553   5.53
C00E  1  1.05993  0.49001  0.54261 11.00000  0.00500   4.49
C00F  1  1.05318  0.58037  0.45618 11.00000  0.01023   4.36
O00G  3  0.05657  0.18894  0.34594 11.00000  0.12033   4.20
C00H  1  0.18888  0.27231  0.28924 11.00000  0.00010   4.13
C00I  1  0.75039  0.38797  0.48682 11.00000  0.01150   3.73
HKLF 4
END
