TITL 2_expF_0_8_expS_1_4_2_b.res in Pn
REM Old TITL 1 in P2/n
REM SHELXT solution in Pn: R1 0.242, Rweak 0.036, Alpha 0.019
REM <I/s>   1.233 for  100 systematic absences,  Orientation as input
REM Formula found by SHELXT:  C17 N O4

CELL  0.71073   7.0400   9.2900  11.5500   90.000   97.870   90.000
ZERR   16.000   0.0014   0.0019   0.0023    0.000    0.030    0.000
LATT -1
SYMM 1/2+X, -Y, 1/2+Z
SFAC C N O
UNIT 16 16 16
L.S. 10
BOND
LIST 6
FMAP 2
PLAN 20
O001  3  1.02459  1.07895  0.45251 11.00000  0.04716   8.61
O002  3  0.82618  1.16916  0.28053 11.00000  0.03816   7.93
O003  3  0.33549  0.75294  0.31943 11.00000  0.04438   7.91
N004  2  0.25260  0.60296  0.51418 11.00000  0.03750   7.22
C005  1  0.93929  0.80119  0.66884 11.00000  0.03200   6.36
C006  1  0.04275  0.69808  0.34901 11.00000  0.02673   6.35
C007  1  0.80978  0.74272  0.72958 11.00000  0.03568   6.34
C008  1  0.06607  0.84795  0.17727 11.00000  0.03583   6.17
C009  1  0.71417  0.98962  0.39720 11.00000  0.03254   6.13
C00A  1  1.05849  0.98756  0.54931 11.00000  0.02963   6.03
C00B  1  0.90711  0.89314  0.56523 11.00000  0.02723   5.95
C00C  1  0.27545  0.51693  0.61625 11.00000  0.04080   5.82
C00D  1  0.08140  0.60616  0.44095 11.00000  0.03666   5.78
C00E  1  0.85521  1.07487  0.37108 11.00000  0.03889   5.64
C00F  1  0.11995  0.41366  0.63241 11.00000  0.02937   5.50
C00G  1  0.16683  0.76849  0.28908 11.00000  0.03109   5.36
C00H  1 -0.05849  0.51533  0.46766 11.00000  0.03905   4.99
C00I  1  0.15056  0.31996  0.72379 11.00000  0.03540   4.56
C00J  1  0.88537  0.64905  0.82273 11.00000  0.03815   4.48
C00K  1  0.73290  0.88828  0.48542 11.00000  0.03724   4.31
O00L  3  0.62950  0.74075  0.70116 11.00000  0.05310   3.99
C00M  1 -0.05323  0.42187  0.56757 11.00000  0.05638   3.04
HKLF 4
END
