TITL 2_expF_1_1_expS_0_9_2_a.res in P2(1)/n
REM Old TITL 1 in P2/n
REM SHELXT solution in P2(1)/n: R1 0.267, Rweak 0.069, Alpha 0.110
REM <I/s>   1.198 for  106 systematic absences,  Orientation as input
REM Formula found by SHELXT:  C9 N O

CELL  0.71073   7.0400   9.2900  11.5500   90.000   97.870   90.000
ZERR   16.000   0.0014   0.0019   0.0023    0.000    0.030    0.000
LATT  1
SYMM 1/2-X, 1/2+Y, 1/2-Z
SFAC C N O
UNIT 16 16 16
L.S. 10
BOND
LIST 6
FMAP 2
PLAN 20
N001  2  0.55122  0.44868  0.33912 11.00000  0.03122   6.57
C002  1  0.66440  0.07550  0.72199 11.00000  0.02006   6.39
O003  3  0.85039  0.50625  0.30829 11.00000  0.03979   6.32
C004  1  0.67821  0.51192  0.27862 11.00000  0.02378   6.17
C005  1  0.78095  0.26377  0.60998 11.00000  0.02685   6.09
C006  1  0.58851  0.35717  0.43841 11.00000  0.02524   5.97
C007  1  0.63300  0.16998  0.63012 11.00000  0.02713   5.86
C008  1  0.75986  0.35701  0.51478 11.00000  0.02658   5.67
C009  1  0.46073  0.17115  0.55514 11.00000  0.03043   5.67
C00A  1  0.43920  0.26446  0.45932 11.00000  0.02864   5.46
C00B  1  0.59123  0.60092  0.17678 11.00000  0.02842   5.38
HKLF 4
END
