TITL 2_expF_1_5_expS_1_5_2_a.res in P2(1)/n
REM Old TITL 1 in P2/n
REM SHELXT solution in P2(1)/n: R1 0.685, Rweak 0.055, Alpha 0.100
REM <I/s>   2.791 for  106 systematic absences,  Orientation as input
REM Formula found by SHELXT:  C17 N5 O2

CELL  0.71073   7.0400   9.2900  11.5500   90.000   97.870   90.000
ZERR   16.000   0.0014   0.0019   0.0023    0.000    0.030    0.000
LATT  1
SYMM 1/2-X, 1/2+Y, 1/2-Z
SFAC C N O
UNIT 16 16 16
L.S. 10
BOND
LIST 6
FMAP 2
PLAN 20
O001  3  0.65423  0.07687  0.72136 11.00000  0.07628   8.29
N002  2  0.58977  0.34710  0.43248 11.00000  0.09319   8.19
N003  2  0.55097  0.44827  0.34186 11.00000  0.08826   7.85
O004  3  0.78578  0.26012  0.60213 11.00000  0.08742   7.77
N005  2  0.68371  0.51836  0.28538 11.00000  0.09030   7.68
C006  1  0.63328  0.17685  0.63143 11.00000  0.08919   7.35
C007  1  0.75174  0.35985  0.52141 11.00000  0.08618   7.34
N008  2  0.85631  0.51194  0.30337 11.00000  0.08251   7.12
N009  2  0.47030  0.16730  0.55375 11.00000  0.10350   7.11
C00A  1  0.42811  0.25033  0.46296 11.00000  0.07637   6.45
C00B  1  1.00589  0.42858  0.42049 11.00000  0.15391   5.00
C00C  1  0.80861  0.60664  0.11657 11.00000  0.18626   4.56
C00D  1  0.53382  0.57888  0.28438 11.00000  0.13529   4.25
C00E  1  0.59223  0.59336  0.17519 11.00000  0.09738   4.24
C00F  1  0.37116  0.60305  0.05744 11.00000  0.19351   4.23
C00G  1  0.16328  0.21800  0.59679 11.00000  0.20895   4.18
C00H  1  0.66276  0.73399  0.08233 11.00000  0.16279   3.71
C00I  1  0.90014  0.44698  0.47977 11.00000  0.12131   3.63
C00J  1  0.40718  0.24675  0.24163 11.00000  0.16917   3.59
C00K  1  0.31624  0.10213  0.58671 11.00000  0.12746   3.44
C00L  1  0.59948  0.18799  0.23039 11.00000  0.16726   3.28
C00M  1  0.50438  0.21780  0.28363 11.00000  0.16674   3.25
C00N  1  0.35063  0.57005  0.25577 11.00000  0.16305   3.25
C00O  1  0.37374  0.27512  0.35651 11.00000  0.13163   3.12
HKLF 4
END
