TITL 2_expF_0_9_expS_0_7_2_a.res in Pn
REM Old TITL 1 in P2/n
REM SHELXT solution in Pn: R1 0.266, Rweak 0.252, Alpha 0.143
REM <I/s>   0.919 for  100 systematic absences,  Orientation as input
REM Formula found by SHELXT:  C12 N O5

CELL  0.71073   7.0400   9.2900  11.5500   90.000   97.870   90.000
ZERR   16.000   0.0014   0.0019   0.0023    0.000    0.030    0.000
LATT -1
SYMM 1/2+X, -Y, 1/2+Z
SFAC C N O
UNIT 16 16 16
L.S. 10
BOND
LIST 6
FMAP 2
PLAN 20
C001  1  0.67475  0.26575  0.32920 11.00000  0.00010   9.60
O002  3  0.53881  0.57823  0.49421 11.00000  0.00972   8.17
O003  3  0.53957  0.20024  0.38814 11.00000  0.01910   7.99
O004  3  0.59037  0.35287  0.22624 11.00000  0.00082   7.46
N005  2  0.32880  0.67589  0.32882 11.00000  0.00956   7.12
C006  1  0.43547  0.01612  0.51011 11.00000  0.00010   6.47
C007  1  0.22494  0.47757  0.44361 11.00000  0.00915   6.43
C008  1  0.40842  0.39396  0.60620 11.00000  0.00306   6.05
C009  1  0.76279  0.10658  0.56776 11.00000  0.00383   5.89
O00A  3  0.85449  0.25650  0.36206 11.00000  0.02349   5.87
C00B  1  0.14551  0.24110  0.74026 11.00000  0.00010   5.37
C00C  1  0.35998  0.57372  0.42216 11.00000  0.02209   5.18
C00D  1  0.24449  0.39027  0.53877 11.00000  0.02707   4.68
C00E  1  0.78410  0.00681  0.66433 11.00000  0.01861   4.54
C00F  1  0.57828  0.10422  0.47604 11.00000  0.03581   4.46
C00G  1  0.62551 -0.08540  0.68113 11.00000  0.01521   4.42
O00H  3  0.66386 -0.17288  0.77376 11.00000  0.04398   4.32
C00I  1  0.43048  0.30324  0.70923 11.00000  0.00739   3.54
HKLF 4
END
