TITL 2_expF_1_3_expS_1_1_2_b.res in Pn
REM Old TITL 1 in P2/n
REM SHELXT solution in Pn: R1 0.297, Rweak 0.014, Alpha 0.018
REM <I/s>   1.286 for  100 systematic absences,  Orientation as input
REM Formula found by SHELXT:  C13 N5 O4

CELL  0.71073   7.0400   9.2900  11.5500   90.000   97.870   90.000
ZERR   16.000   0.0014   0.0019   0.0023    0.000    0.030    0.000
LATT -1
SYMM 1/2+X, -Y, 1/2+Z
SFAC C N O
UNIT 16 16 16
L.S. 10
BOND
LIST 6
FMAP 2
PLAN 20
O001  3  0.54221  1.08288  0.44967 11.00000  0.06651   7.66
O002  3  0.33715  1.17142  0.28034 11.00000  0.05875   7.49
N003  2  0.63615  0.41403  0.63386 11.00000  0.05615   7.49
N004  2  0.41620  0.89388  0.56252 11.00000  0.05018   7.41
N005  2  0.22093  0.99166  0.39458 11.00000  0.05878   7.37
O006  3  0.85369  0.75640  0.31152 11.00000  0.07491   6.88
C007  1  0.32301  0.73733  0.72105 11.00000  0.04810   6.70
N008  2  0.75990  0.60453  0.51465 11.00000  0.04804   6.57
N009  2  0.44680  0.80878  0.65930 11.00000  0.06457   6.51
C00A  1  0.43846  0.51732  0.46199 11.00000  0.04462   6.28
C00B  1  0.55287  0.70268  0.34004 11.00000  0.03610   5.99
C00C  1  0.55667  0.98856  0.54392 11.00000  0.05583   5.83
C00D  1  0.59399  0.84674  0.17663 11.00000  0.05258   5.82
C00E  1  0.65956  0.32637  0.72468 11.00000  0.03763   5.79
C00F  1  0.23993  0.89190  0.48400 11.00000  0.05969   5.43
C00G  1  0.77824  0.51654  0.61336 11.00000  0.05188   5.21
C00H  1  0.67736  0.76536  0.28034 11.00000  0.05270   4.82
C00I  1  0.41265  0.64691  0.82337 11.00000  0.06382   4.75
O00J  3  0.14631  0.74513  0.69513 11.00000  0.05390   4.66
C00K  1  0.46074  0.42588  0.56402 11.00000  0.06446   4.65
C00L  1  0.59159  0.60794  0.43809 11.00000  0.05174   4.32
C00M  1  0.36679  1.08005  0.37078 11.00000  0.05426   3.72
HKLF 4
END
