TITL 2_expF_1_5_expS_0_6_2_c.res in P2(1)
REM Old TITL 1 in P2/n
REM SHELXT solution in P2(1): R1 0.243, Rweak 0.087, Alpha 0.137
REM <I/s>   2.140 for    6 systematic absences,  Orientation as input
REM Formula found by SHELXT:  C15 N4 O3

CELL  0.71073   7.0400   9.2900  11.5500   90.000   97.870   90.000
ZERR   16.000   0.0014   0.0019   0.0023    0.000    0.030    0.000
LATT -1
SYMM -X, 1/2+Y, -Z
SFAC C N O
UNIT 16 16 16
L.S. 10
BOND
LIST 6
FMAP 2
PLAN 20
C001  1  0.42675  0.76038  0.52307 11.00000  0.02250   7.98
N002  2  0.88194  0.58363  0.38243 11.00000  0.02431   7.57
N003  2  0.53337  0.51989  0.86087 11.00000  0.04909   7.02
O004  3  1.10150  0.24100  0.05631 11.00000  0.04085   6.67
N005  2  0.79377  0.29922  0.09173 11.00000  0.02336   6.64
N006  2  0.91242  0.69602  0.46591 11.00000  0.02557   6.60
C007  1  0.68461  0.48362  0.20997 11.00000  0.02426   6.45
C008  1  1.01252  0.40399  0.26018 11.00000  0.02996   6.10
C009  1  0.31114  0.69788  0.58868 11.00000  0.01884   6.08
C00A  1  0.84615  0.14851 -0.07310 11.00000  0.02244   6.04
C00B  1  0.70821  0.57769  0.30530 11.00000  0.02763   5.98
C00C  1  0.34278  0.61266  0.68801 11.00000  0.03612   5.86
C00D  1  0.83589  0.39775  0.18904 11.00000  0.01542   5.71
O00E  3  0.41360  0.34363  0.97621 11.00000  0.02646   5.60
O00F  3  0.60239  0.75489  0.56116 11.00000  0.03005   5.59
C00G  1  0.21000  0.41879  0.80318 11.00000  0.03353   5.25
C00H  1  0.50700  0.61392  0.76747 11.00000  0.01466   4.83
C00I  1  0.19538  0.51145  0.70906 11.00000  0.02537   4.44
C00J  1  1.02858  0.49174  0.35846 11.00000  0.01715   4.40
C00K  1  0.33824  0.85149  0.42751 11.00000  0.03281   4.39
C00L  1  0.93289  0.23435  0.03546 11.00000  0.01977   4.00
C00M  1  0.38353  0.42463  0.87652 11.00000  0.03326   3.75
HKLF 4
END
