TITL 2_expF_0_9_expS_1_4_2_b.res in Pn
REM Old TITL 1 in P2/n
REM SHELXT solution in Pn: R1 0.259, Rweak 0.023, Alpha 0.025
REM <I/s>   1.378 for  100 systematic absences,  Orientation as input
REM Formula found by SHELXT:  C14 N5 O3

CELL  0.71073   7.0400   9.2900  11.5500   90.000   97.870   90.000
ZERR   16.000   0.0014   0.0019   0.0023    0.000    0.030    0.000
LATT -1
SYMM 1/2+X, -Y, 1/2+Z
SFAC C N O
UNIT 16 16 16
L.S. 10
BOND
LIST 6
FMAP 2
PLAN 20
O001  3  0.54682  0.30021  0.33621 11.00000  0.05113   8.56
N002  2  0.44875  0.48501  0.45985 11.00000  0.05014   7.24
N003  2  0.76626  0.39321  0.51348 11.00000  0.03813   7.24
N004  2  0.22419  0.01452  0.38802 11.00000  0.03672   7.16
N005  2  0.33466 -0.17017  0.27462 11.00000  0.03035   6.93
O006  3  0.14804  0.25797  0.69287 11.00000  0.04517   6.72
N007  2  0.40981  0.10388  0.55736 11.00000  0.04692   6.51
C008  1  0.54229 -0.08480  0.44485 11.00000  0.03947   6.45
C009  1  0.65918  0.67715  0.71821 11.00000  0.03767   6.34
C00A  1  0.64285  0.58132  0.63105 11.00000  0.03622   6.28
C00B  1  0.68028  0.23261  0.27845 11.00000  0.04369   6.21
C00C  1  0.59719  0.14851  0.17701 11.00000  0.03880   6.02
C00D  1  0.46534  0.57431  0.55695 11.00000  0.04487   5.67
C00E  1  0.32435  0.25930  0.71781 11.00000  0.03650   5.66
C00F  1  0.37757 -0.08211  0.37077 11.00000  0.04367   5.63
C00G  1  0.58529  0.39238  0.43395 11.00000  0.03676   5.63
O00H  3  0.85196  0.24505  0.31046 11.00000  0.05884   5.56
C00I  1  0.78710  0.48964  0.60648 11.00000  0.05870   5.34
C00J  1  0.41632  0.34984  0.82299 11.00000  0.05113   4.91
C00K  1  0.24705  0.10734  0.48431 11.00000  0.05224   4.24
C00L  1  0.43908  0.19490  0.65607 11.00000  0.03209   4.13
C00M  1  0.56926  0.01510  0.53879 11.00000  0.04201   4.07
HKLF 4
END
