TITL 2_expF_0_8_expS_0_9_2_b.res in P2(1)
REM Old TITL 1 in P2/n
REM SHELXT solution in P2(1): R1 0.257, Rweak 0.179, Alpha 0.252
REM <I/s>   1.739 for    6 systematic absences,  Orientation as input
REM Formula found by SHELXT:  C17 N2 O3

CELL  0.71073   7.0400   9.2900  11.5500   90.000   97.870   90.000
ZERR   16.000   0.0014   0.0019   0.0023    0.000    0.030    0.000
LATT -1
SYMM -X, 1/2+Y, -Z
SFAC C N O
UNIT 16 16 16
L.S. 10
BOND
LIST 6
FMAP 2
PLAN 20
O001  3  0.39860  0.25023  0.44238 11.00000  0.01522   7.47
N002  2  0.70049  0.29141  0.40698 11.00000  0.01953   6.74
C003  1  0.10877  0.41630  0.61980 11.00000  0.01538   6.66
N004  2  0.58189  0.66796  0.02405 11.00000  0.00010   6.57
C005  1  0.66149  0.39026  0.31848 11.00000  0.01274   6.54
C006  1  0.14979  0.85077  1.07041 11.00000  0.01962   6.45
C007  1  0.46397  0.49084  0.13532 11.00000  0.02478   6.25
C008  1 -0.00980  0.61400  0.73325 11.00000  0.01384   6.20
C009  1  0.28648  0.40711  0.70170 11.00000  0.02230   6.14
C00A  1  0.81275  0.47616  0.28672 11.00000  0.01504   5.74
C00B  1  0.07456  0.75687  0.97242 11.00000  0.01801   5.65
C00C  1  0.56574  0.23043  0.46833 11.00000  0.01975   5.45
C00D  1  0.19466  0.68722  0.91398 11.00000  0.01334   5.06
C00E  1  0.30745  0.50270  0.79591 11.00000  0.02384   4.74
O00F  3  0.09062  0.30767  0.54258 11.00000  0.08728   4.33
C00G  1  0.16428  0.60677  0.80233 11.00000  0.02790   4.24
C00H  1 -0.02305  0.51953  0.64064 11.00000  0.01522   4.15
C00I  1  0.49152  0.39988  0.23713 11.00000  0.02682   3.85
C00J  1  0.79897  0.56464  0.18895 11.00000  0.01591   3.83
C00K  1  0.66640  0.14923  0.57473 11.00000  0.02237   3.71
C00L  1  0.62884  0.57552  0.12091 11.00000  0.02360   3.70
O00M  3 -0.10046  0.77218  0.94118 11.00000  0.03973   3.64
HKLF 4
END
