TITL 2_expF_1_5_expS_0_7_2_a.res in P2(1)/n
REM Old TITL 1 in P2/n
REM SHELXT solution in P2(1)/n: R1 0.267, Rweak 0.051, Alpha 0.103
REM <I/s>   1.230 for  106 systematic absences,  Orientation as input
REM Formula found by SHELXT:  C10 O

CELL  0.71073   7.0400   9.2900  11.5500   90.000   97.870   90.000
ZERR   16.000   0.0014   0.0019   0.0023    0.000    0.030    0.000
LATT  1
SYMM 1/2-X, 1/2+Y, 1/2-Z
SFAC C N O
UNIT 16 16 16
L.S. 10
BOND
LIST 6
FMAP 2
PLAN 20
C001  1  0.55132  0.44792  0.33967 11.00000  0.02560   6.40
C002  1  0.66361  0.07604  0.72179 11.00000  0.02439   6.32
O003  3  0.85083  0.50549  0.30825 11.00000  0.04469   6.29
C004  1  0.78109  0.26350  0.60988 11.00000  0.03208   6.20
C005  1  0.58804  0.35694  0.43798 11.00000  0.03001   6.05
C006  1  0.67828  0.51254  0.27824 11.00000  0.02808   6.01
C007  1  0.46134  0.17022  0.55508 11.00000  0.03313   5.86
C008  1  0.63286  0.16965  0.62984 11.00000  0.03023   5.80
C009  1  0.76025  0.35700  0.51436 11.00000  0.03173   5.68
C00A  1  0.43884  0.26406  0.45927 11.00000  0.03311   5.55
C00B  1  0.59049  0.60073  0.17653 11.00000  0.03315   5.49
HKLF 4
END
