TITL 2_expF_0_7_expS_1_4_2_a.res in P2(1)/n
REM Old TITL 1 in P2/n
REM SHELXT solution in P2(1)/n: R1 0.267, Rweak 0.070, Alpha 0.159
REM <I/s>   1.184 for  106 systematic absences,  Orientation as input
REM Formula found by SHELXT:  C9 N O

CELL  0.71073   7.0400   9.2900  11.5500   90.000   97.870   90.000
ZERR   16.000   0.0014   0.0019   0.0023    0.000    0.030    0.000
LATT  1
SYMM 1/2-X, 1/2+Y, 1/2-Z
SFAC C N O
UNIT 16 16 16
L.S. 10
BOND
LIST 6
FMAP 2
PLAN 20
N001  2  0.44881  0.44871  0.66091 11.00000  0.03079   6.59
O002  3  0.14963  0.50623  0.69173 11.00000  0.03914   6.42
C003  1  0.33559  0.07545  0.27797 11.00000  0.01979   6.26
C004  1  0.32180  0.51192  0.72143 11.00000  0.02335   6.16
C005  1  0.41145  0.35723  0.56158 11.00000  0.02484   6.08
C006  1  0.36700  0.16999  0.36989 11.00000  0.02670   5.99
C007  1  0.21904  0.26382  0.38995 11.00000  0.02640   5.91
C008  1  0.24014  0.35703  0.48522 11.00000  0.02621   5.67
C009  1  0.53940  0.17117  0.44492 11.00000  0.03007   5.60
C00A  1  0.40879  0.60092  0.82325 11.00000  0.02796   5.46
C00B  1  0.56084  0.26444  0.54067 11.00000  0.02816   5.46
HKLF 4
END
