TITL 2_expF_0_5_expS_1_5_2_a.res in Pn
REM Old TITL 1 in P2/n
REM SHELXT solution in Pn: R1 0.232, Rweak 0.144, Alpha 0.117
REM <I/s>   1.001 for  100 systematic absences,  Orientation as input
REM Formula found by SHELXT:  C13 O8

CELL  0.71073   7.0400   9.2900  11.5500   90.000   97.870   90.000
ZERR   16.000   0.0014   0.0019   0.0023    0.000    0.030    0.000
LATT -1
SYMM 1/2+X, -Y, 1/2+Z
SFAC C N O
UNIT 16 16 16
L.S. 10
BOND
LIST 6
FMAP 2
PLAN 20
O001  3  0.44835  0.30054  0.65224 11.00000  0.00395   9.85
O002  3  0.46785 -0.07898  0.55101 11.00000  0.00422   9.44
O003  3  0.42821  0.14714  0.82308 11.00000  0.03637   8.85
O004  3  0.24427  0.40171  0.48233 11.00000  0.00804   8.21
O005  3  0.78894  0.01300  0.60933 11.00000  0.04136   8.03
C006  1  0.32467  0.23654  0.71889 11.00000  0.01181   7.41
O007  3  0.14675  0.25083  0.68385 11.00000  0.02439   6.67
O008  3  0.34212  0.68269  0.27095 11.00000  0.01710   6.56
C009  1  0.41146  0.39382  0.56188 11.00000  0.01846   6.37
O00A  3  0.85325  0.26186  0.30308 11.00000  0.02005   6.35
C00B  1  0.56971  0.48439  0.53521 11.00000  0.02301   6.31
C00C  1  0.64884 -0.07534  0.62590 11.00000  0.02482   6.13
C00D  1  0.67810 -0.16262  0.71502 11.00000  0.01321   5.99
C00E  1  0.58919  0.11143  0.43692 11.00000  0.01188   5.63
C00F  1  0.38174  0.58461  0.36615 11.00000  0.01027   5.59
C00G  1  0.68386  0.26624  0.27913 11.00000  0.01041   5.49
C00H  1  0.44690  0.01216  0.45372 11.00000  0.01331   5.23
C00I  1  0.75898  0.12483  0.51119 11.00000  0.03434   4.29
C00J  1  0.22946  0.48914  0.38723 11.00000  0.00978   4.21
C00K  1  0.53253  0.19947  0.32006 11.00000  0.04450   3.45
C00L  1  0.61145  0.34580  0.17692 11.00000  0.00981   3.45
HKLF 4
END
