TITL 2_expF_0_6_expS_0_8_2_a.res in Pn
REM Old TITL 1 in P2/n
REM SHELXT solution in Pn: R1 0.272, Rweak 0.419, Alpha 0.262
REM <I/s>   0.889 for   97 systematic absences,  Orientation as input
REM Formula found by SHELXT:  C12 N7 O7

CELL  0.71073   7.0400   9.2900  11.5500   90.000   97.870   90.000
ZERR   16.000   0.0014   0.0019   0.0023    0.000    0.030    0.000
LATT -1
SYMM 1/2+X, -Y, 1/2+Z
SFAC C N O
UNIT 16 16 16
L.S. 10
BOND
LIST 6
FMAP 2
PLAN 20
N001  2  0.70262  0.58343  0.61261 11.00000  0.00010  13.97
O002  3  0.72814  0.67204  0.70930 11.00000  0.00010  12.39
N003  2  0.47181  0.10886  0.55051 11.00000  0.00010  10.37
O004  3  0.82632  0.47973  0.59789 11.00000  0.00131  10.29
O005  3  0.21822  0.25172  0.67639 11.00000  0.00777   9.38
O006  3  0.51146  0.20531  0.64922 11.00000  0.00010   9.26
O007  3  0.48072  0.35392  0.81885 11.00000  0.00010   9.11
O008  3  0.54734  0.57459  0.54193 11.00000  0.00404   8.28
N009  2  0.38363  0.25794  0.69995 11.00000  0.00010   7.64
O00A  3  0.93115  0.24267  0.29817 11.00000  0.01094   7.42
N00B  2  0.72924  0.22368  0.26050 11.00000  0.01216   7.24
N00C  2  0.82933  0.38814  0.49091 11.00000  0.00010   6.83
N00D  2  0.60601  0.31209  0.33607 11.00000  0.02183   6.72
C00E  1  0.49832  0.49265  0.44413 11.00000  0.00010   6.49
C00F  1  0.31142  0.09457  0.45816 11.00000  0.00837   5.98
C00G  1  0.63196  0.02116  0.52544 11.00000  0.00786   5.62
C00H  1  0.63377 -0.09997  0.43811 11.00000  0.01030   4.28
C00I  1  0.66600  0.15549  0.18115 11.00000  0.01795   3.75
C00J  1  0.19821  0.26389  0.47666 11.00000  0.08320   3.69
C00K  1  0.25126  0.01628  0.36682 11.00000  0.02313   3.37
N00L  2  0.11909 -0.07555  0.28273 11.00000  0.12525   3.33
C00M  1  0.45938 -0.05619  0.34578 11.00000  0.06272   3.21
C00N  1  0.64283  0.39372  0.42633 11.00000  0.01574   3.19
C00O  1  0.41446  0.35681  0.47229 11.00000  0.05612   3.13
C00P  1  0.06885  0.37669  0.59550 11.00000  0.07736   3.08
C00Q  1  0.31455  0.68751  0.38752 11.00000  0.10914   3.04
HKLF 4
END
