TITL 2_expF_0_7_expS_1_2_2_a.res in Pn
REM Old TITL 1 in P2/n
REM SHELXT solution in Pn: R1 0.230, Rweak 0.107, Alpha 0.072
REM <I/s>   1.024 for  100 systematic absences,  Orientation as input
REM Formula found by SHELXT:  C12 N2 O7

CELL  0.71073   7.0400   9.2900  11.5500   90.000   97.870   90.000
ZERR   16.000   0.0014   0.0019   0.0023    0.000    0.030    0.000
LATT -1
SYMM 1/2+X, -Y, 1/2+Z
SFAC C N O
UNIT 16 16 16
L.S. 10
BOND
LIST 6
FMAP 2
PLAN 20
N001  2  0.58628  0.88660  0.43681 11.00000  0.00917  10.18
O002  3  0.46553  1.08044  0.55137 11.00000  0.00362  10.18
O003  3  0.77852  0.98456  0.60904 11.00000  0.02364   9.82
C004  1  0.33442  0.76646  0.72268 11.00000  0.01779   8.46
O005  3  0.44624  0.70415  0.65356 11.00000  0.02611   8.32
O006  3  0.66205  1.16897  0.71968 11.00000  0.03542   8.29
O007  3  0.14885  0.75199  0.68601 11.00000  0.01854   8.05
C008  1  0.36679  0.41434  0.36467 11.00000  0.02014   7.79
N009  2  0.59768  0.64817  0.17684 11.00000  0.02436   6.58
C00A  1  0.41286  0.84936  0.82316 11.00000  0.02181   6.14
C00B  1  0.54937  0.80836  0.33083 11.00000  0.01667   6.11
C00C  1  0.44753  0.98696  0.45483 11.00000  0.01211   5.77
C00D  1  0.24112  0.60281  0.48709 11.00000  0.01229   5.69
O00E  3  0.85115  0.73595  0.30387 11.00000  0.03849   5.66
O00F  3  0.33723  0.32243  0.27462 11.00000  0.02925   5.61
C00G  1  0.56819  0.51230  0.53295 11.00000  0.02795   5.58
C00H  1  0.76211  0.88846  0.52002 11.00000  0.02751   5.56
C00I  1  0.68827  0.73676  0.28186 11.00000  0.01193   4.66
C00J  1  0.20860  0.50672  0.38929 11.00000  0.03924   3.82
C00K  1  0.63103  1.07471  0.62755 11.00000  0.02024   3.76
C00L  1  0.40345  0.59460  0.56044 11.00000  0.04294   3.49
HKLF 4
END
