TITL 2_expF_0_9_expS_1_1_2_a.res in P2(1)/n
REM Old TITL 1 in P2/n
REM SHELXT solution in P2(1)/n: R1 0.268, Rweak 0.063, Alpha 0.108
REM <I/s>   1.196 for  106 systematic absences,  Orientation as input
REM Formula found by SHELXT:  C10 O

CELL  0.71073   7.0400   9.2900  11.5500   90.000   97.870   90.000
ZERR   16.000   0.0014   0.0019   0.0023    0.000    0.030    0.000
LATT  1
SYMM 1/2-X, 1/2+Y, 1/2-Z
SFAC C N O
UNIT 16 16 16
L.S. 10
BOND
LIST 6
FMAP 2
PLAN 20
C001  1  0.55096  0.55127  0.33945 11.00000  0.02311   6.41
C002  1  0.67837  0.48729  0.27843 11.00000  0.02592   6.25
O003  3  0.85131  0.49444  0.30814 11.00000  0.04120   6.21
C004  1  0.66395  0.92385  0.72189 11.00000  0.02249   6.17
C005  1  0.78093  0.73654  0.61009 11.00000  0.02847   6.01
C006  1  0.58828  0.64322  0.43814 11.00000  0.02716   6.00
C007  1  0.63304  0.83033  0.62990 11.00000  0.02809   5.98
C008  1  0.75963  0.64274  0.51462 11.00000  0.02776   5.74
C009  1  0.46077  0.82916  0.55506 11.00000  0.03186   5.61
C00A  1  0.43883  0.73575  0.45924 11.00000  0.03035   5.44
C00B  1  0.59168  0.39940  0.17678 11.00000  0.02992   5.40
HKLF 4
END
