TITL 2_expF_0_8_expS_1_2_2_a.res in P2(1)/n
REM Old TITL 1 in P2/n
REM SHELXT solution in P2(1)/n: R1 0.269, Rweak 0.070, Alpha 0.113
REM <I/s>   1.174 for  106 systematic absences,  Orientation as input
REM Formula found by SHELXT:  C10 O

CELL  0.71073   7.0400   9.2900  11.5500   90.000   97.870   90.000
ZERR   16.000   0.0014   0.0019   0.0023    0.000    0.030    0.000
LATT  1
SYMM 1/2-X, 1/2+Y, 1/2-Z
SFAC C N O
UNIT 16 16 16
L.S. 10
BOND
LIST 6
FMAP 2
PLAN 20
C001  1  0.55100  0.44880  0.33938 11.00000  0.02185   6.50
C002  1  0.66425  0.07609  0.72189 11.00000  0.02148   6.38
O003  3  0.85124  0.50562  0.30816 11.00000  0.03925   6.37
C004  1  0.58832  0.35689  0.43806 11.00000  0.02604   6.14
C005  1  0.78079  0.26353  0.61023 11.00000  0.02705   6.09
C006  1  0.67847  0.51275  0.27842 11.00000  0.02470   6.03
C007  1  0.63285  0.16967  0.62977 11.00000  0.02686   5.86
C008  1  0.46049  0.17086  0.55491 11.00000  0.03057   5.73
C009  1  0.75970  0.35737  0.51469 11.00000  0.02643   5.65
C00A  1  0.43881  0.26421  0.45925 11.00000  0.02894   5.52
C00B  1  0.59171  0.60059  0.17680 11.00000  0.02829   5.43
HKLF 4
END
