TITL 2_expF_1_2_expS_0_5_2_b.res in P2(1)
REM Old TITL 1 in P2/n
REM SHELXT solution in P2(1): R1 0.275, Rweak 0.271, Alpha 0.292
REM <I/s>   1.523 for    6 systematic absences,  Orientation as input
REM Formula found by SHELXT:  C12 N2 O8

CELL  0.71073   7.0400   9.2900  11.5500   90.000   97.870   90.000
ZERR   16.000   0.0014   0.0019   0.0023    0.000    0.030    0.000
LATT -1
SYMM -X, 1/2+Y, -Z
SFAC C N O
UNIT 16 16 16
L.S. 10
BOND
LIST 6
FMAP 2
PLAN 20
O001  3  0.40264  0.47691  0.94272 11.00000  0.01085   9.94
O002  3  0.70144  0.54306  0.91200 11.00000  0.00946   9.58
O003  3  0.01163  0.34058  0.76567 11.00000  0.00010   9.16
N004  2  0.61526  0.80949  0.62095 11.00000  0.00010   9.03
O005  3 -0.08728  0.07153  0.97801 11.00000  0.00010   8.49
O006  3  0.81688  0.72061  0.79377 11.00000  0.02772   8.15
O007  3  0.03168  0.24348  0.86786 11.00000  0.01724   7.86
C008  1  0.57052  0.46851  0.96845 11.00000  0.00010   7.36
O009  3  0.65743  0.37763  1.06858 11.00000  0.00801   7.25
N00A  2 -0.16078  0.34653  0.69210 11.00000  0.01159   6.84
C00B  1 -0.07087  0.49732  0.52700 11.00000  0.01691   6.43
C00C  1  0.66048  0.63401  0.81638 11.00000  0.01792   6.17
C00D  1 -0.30793  0.14634  0.80280 11.00000  0.00084   6.04
C00E  1  0.10924  0.49335  0.56321 11.00000  0.00010   5.80
C00F  1  0.57745  0.92847  0.54055 11.00000  0.01072   5.70
C00G  1  0.77903  0.79924  0.69162 11.00000  0.01904   5.54
C00H  1  0.47160  0.71462  0.64611 11.00000  0.01492   5.21
C00I  1 -0.15598  0.57348  0.42196 11.00000  0.02448   4.85
C00J  1 -0.18644  0.44600  0.59555 11.00000  0.00454   4.57
C00K  1 -0.12093  0.14414  0.88343 11.00000  0.02429   3.87
C00L  1 -0.30548  0.24847  0.71022 11.00000  0.00918   3.54
O00M  3  0.33737  0.68585  0.57397 11.00000  0.22352   3.05
HKLF 4
END
