TITL 2_expF_1_3_expS_1_5_2_a.res in P2(1)/n
REM Old TITL 1 in P2/n
REM SHELXT solution in P2(1)/n: R1 0.458, Rweak 0.033, Alpha 0.018
REM <I/s>   1.937 for  106 systematic absences,  Orientation as input
REM Formula found by SHELXT:  C9 N O

CELL  0.71073   7.0400   9.2900  11.5500   90.000   97.870   90.000
ZERR   16.000   0.0014   0.0019   0.0023    0.000    0.030    0.000
LATT  1
SYMM 1/2-X, 1/2+Y, 1/2-Z
SFAC C N O
UNIT 16 16 16
L.S. 10
BOND
LIST 6
FMAP 2
PLAN 20
N001  2  0.66053  0.07912  0.72648 11.00000  0.08910   6.57
C002  1  0.78461  0.26733  0.60941 11.00000  0.08500   6.43
C003  1  0.46094  0.17587  0.55998 11.00000  0.08364   6.27
C004  1  0.55351  0.44959  0.33762 11.00000  0.07973   6.23
C005  1  0.44112  0.26399  0.45651 11.00000  0.08344   5.99
C006  1  0.58872  0.35316  0.43543 11.00000  0.07721   5.96
C007  1  0.67462  0.51404  0.28539 11.00000  0.09131   5.87
O008  3  0.85741  0.50366  0.31004 11.00000  0.10085   5.72
C009  1  0.63105  0.17644  0.63057 11.00000  0.08318   5.68
C00A  1  0.76462  0.35859  0.51447 11.00000  0.08159   5.57
C00B  1  0.59013  0.59454  0.18025 11.00000  0.10408   5.01
HKLF 4
END
