TITL 2_expF_1_2_expS_0_8_2_a.res in P2(1)/n
REM Old TITL 1 in P2/n
REM SHELXT solution in P2(1)/n: R1 0.268, Rweak 0.077, Alpha 0.132
REM <I/s>   1.171 for  106 systematic absences,  Orientation as input
REM Formula found by SHELXT:  C9 N O

CELL  0.71073   7.0400   9.2900  11.5500   90.000   97.870   90.000
ZERR   16.000   0.0014   0.0019   0.0023    0.000    0.030    0.000
LATT  1
SYMM 1/2-X, 1/2+Y, 1/2-Z
SFAC C N O
UNIT 16 16 16
L.S. 10
BOND
LIST 6
FMAP 2
PLAN 20
N001  2  0.44872  0.55125  0.66093 11.00000  0.02979   6.54
C002  1  0.33542  0.92458  0.27801 11.00000  0.01906   6.33
C003  1  0.32173  0.48798  0.72137 11.00000  0.02251   6.26
O004  3  0.14958  0.49373  0.69165 11.00000  0.03793   6.23
C005  1  0.21917  0.73616  0.38988 11.00000  0.02548   6.09
C006  1  0.41143  0.64271  0.56159 11.00000  0.02409   5.88
C007  1  0.36709  0.82993  0.36995 11.00000  0.02585   5.78
C008  1  0.24013  0.64287  0.48518 11.00000  0.02533   5.78
C009  1  0.53956  0.82881  0.44500 11.00000  0.02905   5.68
C00A  1  0.56091  0.73556  0.54068 11.00000  0.02733   5.66
C00B  1  0.40875  0.39915  0.82319 11.00000  0.02686   5.41
HKLF 4
END
