TITL 2_expF_1_1_expS_0_6_2_a.res in Pn
REM Old TITL 1 in P2/n
REM SHELXT solution in Pn: R1 0.256, Rweak 0.212, Alpha 0.136
REM <I/s>   0.930 for  100 systematic absences,  Orientation as input
REM Formula found by SHELXT:  C10 N2 O8

CELL  0.71073   7.0400   9.2900  11.5500   90.000   97.870   90.000
ZERR   16.000   0.0014   0.0019   0.0023    0.000    0.030    0.000
LATT -1
SYMM 1/2+X, -Y, 1/2+Z
SFAC C N O
UNIT 16 16 16
L.S. 10
BOND
LIST 6
FMAP 2
PLAN 20
O001  3  0.53164  0.80110  0.32666 11.00000  0.02575  10.27
O002  3  0.21413  0.51721  0.38354 11.00000  0.00010   9.39
O003  3  0.53220  0.41952  0.43716 11.00000  0.00141   9.00
C004  1  0.31095  0.75615  0.71304 11.00000  0.01022   8.82
O005  3  0.32053  0.31544  0.28094 11.00000  0.01757   8.71
O006  3  0.76277  0.90075  0.50935 11.00000  0.01912   7.58
O007  3  0.85276  0.74355  0.30488 11.00000  0.01892   7.26
O008  3  0.14724  0.75898  0.68307 11.00000  0.01458   7.24
C009  1  0.58534  0.89440  0.43450 11.00000  0.02339   6.90
N00A  2  0.55090  0.50938  0.52888 11.00000  0.00875   6.87
C00B  1  0.36436  0.42730  0.36190 11.00000  0.01808   6.67
C00C  1  0.40488  0.84501  0.82368 11.00000  0.02131   6.38
C00D  1  0.62955  1.08481  0.62356 11.00000  0.01087   6.29
C00E  1  0.40755  0.60942  0.55560 11.00000  0.00010   5.97
C00F  1  0.58688  0.64826  0.17632 11.00000  0.00295   5.84
O00G  3  0.43205  0.97900  0.44447 11.00000  0.04472   5.07
N00H  2  0.65313  1.16794  0.72370 11.00000  0.00714   4.95
C00I  1  0.67117  0.72882  0.27589 11.00000  0.01225   4.80
C00J  1  0.42987  0.69973  0.65038 11.00000  0.00147   4.58
C00K  1  0.24643  0.61705  0.47852 11.00000  0.01744   4.27
HKLF 4
END
