TITL 2_expF_0_8_expS_1_3_2_a.res in P2(1)/n
REM Old TITL 1 in P2/n
REM SHELXT solution in P2(1)/n: R1 0.266, Rweak 0.052, Alpha 0.112
REM <I/s>   1.223 for  106 systematic absences,  Orientation as input
REM Formula found by SHELXT:  C10 O

CELL  0.71073   7.0400   9.2900  11.5500   90.000   97.870   90.000
ZERR   16.000   0.0014   0.0019   0.0023    0.000    0.030    0.000
LATT  1
SYMM 1/2-X, 1/2+Y, 1/2-Z
SFAC C N O
UNIT 16 16 16
L.S. 10
BOND
LIST 6
FMAP 2
PLAN 20
C001  1  0.44877  0.55184  0.66023 11.00000  0.02475   6.47
C002  1  0.33613  0.92385  0.27817 11.00000  0.02395   6.33
C003  1  0.32141  0.48731  0.72168 11.00000  0.02784   6.25
O004  3  0.14894  0.49439  0.69194 11.00000  0.04408   6.17
C005  1  0.41212  0.64283  0.56185 11.00000  0.02941   5.99
C006  1  0.21901  0.73609  0.39004 11.00000  0.03055   5.95
C007  1  0.36734  0.83012  0.37005 11.00000  0.02952   5.92
C008  1  0.24016  0.64275  0.48547 11.00000  0.03065   5.74
C009  1  0.53858  0.82956  0.44463 11.00000  0.03255   5.70
C00A  1  0.56090  0.73567  0.54065 11.00000  0.03193   5.40
C00B  1  0.40924  0.39950  0.82337 11.00000  0.03260   5.40
HKLF 4
END
