TITL 2_expF_1_1_expS_0_7_2_a.res in Pn
REM Old TITL 1 in P2/n
REM SHELXT solution in Pn: R1 0.247, Rweak 0.145, Alpha 0.096
REM <I/s>   0.971 for  100 systematic absences,  Orientation as input
REM Formula found by SHELXT:  C12 N5 O3

CELL  0.71073   7.0400   9.2900  11.5500   90.000   97.870   90.000
ZERR   16.000   0.0014   0.0019   0.0023    0.000    0.030    0.000
LATT -1
SYMM 1/2+X, -Y, 1/2+Z
SFAC C N O
UNIT 16 16 16
L.S. 10
BOND
LIST 6
FMAP 2
PLAN 20
O001  3  0.65419  0.25839  0.69062 11.00000  0.00242   9.99
C002  1  0.87394 -0.07709  0.36848 11.00000  0.00010   8.40
N003  2  0.75611  0.10655  0.48740 11.00000  0.01251   6.71
N004  2  0.72317  0.01595  0.39404 11.00000  0.01798   6.63
N005  2 -0.03042  0.58630  0.54986 11.00000  0.02505   6.63
N006  2  0.05739  0.30255  0.33849 11.00000  0.02272   6.62
N007  2  0.17080  0.67869  0.71748 11.00000  0.01883   6.51
C008  1 -0.05901  0.48317  0.45927 11.00000  0.01401   6.31
C009  1  0.91202  0.35782  0.82156 11.00000  0.01913   6.31
C00A  1  0.09557  0.38873  0.43987 11.00000  0.01227   6.28
C00B  1  0.83063  0.27306  0.71604 11.00000  0.01499   6.04
C00C  1  0.94764  0.20477  0.65690 11.00000  0.02339   6.00
C00D  1  0.18476  0.24539  0.27905 11.00000  0.02085   5.52
O00E  3  0.28642  0.48666  0.61413 11.00000  0.05340   5.41
O00F  3  0.83895 -0.16878  0.27013 11.00000  0.03943   5.39
C00G  1  0.92444  0.10088  0.56361 11.00000  0.02913   5.38
C00H  1  0.09331  0.15580  0.17844 11.00000  0.02333   4.75
C00I  1  1.05545  0.00743  0.54456 11.00000  0.03151   4.51
C00J  1  0.28210  0.39233  0.52581 11.00000  0.03564   4.47
C00K  1  1.05901 -0.06625  0.43666 11.00000  0.02912   4.35
HKLF 4
END
