TITL 2_expF_1_4_expS_1_4_2_c.res in P2(1)
REM Old TITL 1 in P2/n
REM SHELXT solution in P2(1): R1 0.453, Rweak 0.010, Alpha 0.021
REM <I/s>  13.215 for    6 systematic absences,  Orientation as input
REM Formula found by SHELXT:  C14 N6 O2

CELL  0.71073   7.0400   9.2900  11.5500   90.000   97.870   90.000
ZERR   16.000   0.0014   0.0019   0.0023    0.000    0.030    0.000
LATT -1
SYMM -X, 1/2+Y, -Z
SFAC C N O
UNIT 16 16 16
L.S. 10
BOND
LIST 6
FMAP 2
PLAN 20
N001  2  0.52962  0.48150  0.85989 11.00000  0.10339   7.09
N002  2  0.80372  0.69831  0.09096 11.00000  0.09674   6.81
N003  2  0.69735  0.50745  0.20902 11.00000  0.09908   6.79
N004  2  0.41217  0.67308  0.97402 11.00000  0.08292   6.69
N005  2  0.71059  0.41744  0.30917 11.00000  0.10039   6.53
N006  2  0.90961  0.32286  0.47215 11.00000  0.09073   6.51
C007  1  0.20608  0.57859  0.80610 11.00000  0.08124   6.49
C008  1  1.03100  0.51145  0.36055 11.00000  0.08082   6.41
C009  1  0.88607  0.41791  0.37950 11.00000  0.07974   6.18
C00A  1  0.83625  0.60062  0.18719 11.00000  0.07292   5.99
C00B  1  0.30403  0.29523  0.58831 11.00000  0.07532   5.88
C00C  1  0.19070  0.48111  0.71007 11.00000  0.08235   5.86
C00D  1  0.51594  0.38484  0.76410 11.00000  0.08485   5.83
C00E  1  0.42542  0.23598  0.53619 11.00000  0.09288   5.73
O00F  3  1.10512  0.75284  0.05855 11.00000  0.10188   5.72
C00G  1  0.92935  0.76276  0.03425 11.00000  0.09486   5.71
O00H  3  0.60447  0.24590  0.55742 11.00000  0.10723   5.54
C00I  1  0.33660  0.39328  0.68518 11.00000  0.07768   5.53
C00J  1  0.84015  0.84593 -0.07324 11.00000  0.09658   5.26
C00K  1  0.38425  0.57872  0.88073 11.00000  0.08061   5.23
C00L  1  1.01631  0.60405  0.26662 11.00000  0.08349   5.02
C00M  1  0.34352  0.15407  0.42677 11.00000  0.09777   4.22
HKLF 4
END
