TITL 2_expF_1_2_expS_1_2_2_a.res in P2(1)/n
REM Old TITL 1 in P2/n
REM SHELXT solution in P2(1)/n: R1 0.334, Rweak 0.016, Alpha 0.032
REM <I/s>   1.390 for  106 systematic absences,  Orientation as input
REM Formula found by SHELXT:  C9 N O

CELL  0.71073   7.0400   9.2900  11.5500   90.000   97.870   90.000
ZERR   16.000   0.0014   0.0019   0.0023    0.000    0.030    0.000
LATT  1
SYMM 1/2-X, 1/2+Y, 1/2-Z
SFAC C N O
UNIT 16 16 16
L.S. 10
BOND
LIST 6
FMAP 2
PLAN 20
N001  2  0.33912  0.07580  0.27783 11.00000  0.03964   6.56
C002  1  0.44471  0.44798  0.65952 11.00000  0.03639   6.34
C003  1  0.21863  0.26385  0.39114 11.00000  0.04434   6.18
C004  1  0.53968  0.17179  0.44372 11.00000  0.04480   6.08
C005  1  0.41137  0.35708  0.56213 11.00000  0.03760   6.07
O006  3  0.14618  0.50627  0.69208 11.00000  0.05440   5.98
C007  1  0.32335  0.51241  0.72057 11.00000  0.04328   5.85
C008  1  0.23838  0.35704  0.48484 11.00000  0.04301   5.75
C009  1  0.36610  0.16769  0.37035 11.00000  0.04060   5.73
C00A  1  0.55989  0.26652  0.53833 11.00000  0.04577   5.70
C00B  1  0.41246  0.59753  0.82410 11.00000  0.04887   5.34
HKLF 4
END
