TITL 2_expF_1_3_expS_0_8_2_c.res in P2(1)
REM Old TITL 1 in P2/n
REM SHELXT solution in P2(1): R1 0.244, Rweak 0.047, Alpha 0.120
REM <I/s>   2.152 for    6 systematic absences,  Orientation as input
REM Formula found by SHELXT:  C14 N6 O2

CELL  0.71073   7.0400   9.2900  11.5500   90.000   97.870   90.000
ZERR   16.000   0.0014   0.0019   0.0023    0.000    0.030    0.000
LATT -1
SYMM -X, 1/2+Y, -Z
SFAC C N O
UNIT 16 16 16
L.S. 10
BOND
LIST 6
FMAP 2
PLAN 20
N001  2  0.61813  0.59118  0.12056 11.00000  0.04286   7.23
N002  2  0.07037  0.76256  0.97065 11.00000  0.03097   7.07
N003  2  0.29817  0.42529  0.69565 11.00000  0.03427   7.01
N004  2  0.16511  0.61113  0.80880 11.00000  0.02699   6.95
N005  2  0.08971  0.32941  0.52958 11.00000  0.03463   6.76
N006  2  0.80911  0.49263  0.29345 11.00000  0.04537   6.58
O007  3 -0.10632  0.76739  0.93804 11.00000  0.03010   6.55
C008  1 -0.03216  0.51975  0.63955 11.00000  0.04012   6.37
C009  1  0.19904  0.69844  0.91001 11.00000  0.02167   6.32
C00A  1  0.69677  0.30035  0.40957 11.00000  0.03201   6.14
C00B  1  0.48610  0.40454  0.23859 11.00000  0.02527   5.83
C00C  1  0.47091  0.49253  0.14032 11.00000  0.02787   5.83
C00D  1 -0.00196  0.61642  0.73342 11.00000  0.03315   5.73
C00E  1  0.65403  0.14972  0.57448 11.00000  0.03338   5.67
C00F  1  0.58147  0.67556  0.02662 11.00000  0.02352   5.63
O00G  3  0.40512  0.26318  0.44631 11.00000  0.05870   5.58
C00H  1  0.31188  0.52232  0.78894 11.00000  0.03171   4.84
C00I  1  0.16046  0.85028  1.07206 11.00000  0.03546   4.61
C00J  1  0.77846  0.58326  0.19326 11.00000  0.04401   4.58
C00K  1  0.57066  0.23531  0.47118 11.00000  0.03860   4.47
C00L  1  0.65935  0.39846  0.31779 11.00000  0.04821   4.40
C00M  1  0.11441  0.42848  0.61928 11.00000  0.03129   3.96
HKLF 4
END
