TITL 2_expF_1_4_expS_1_4_2_a.res in P2(1)/n
REM Old TITL 1 in P2/n
REM SHELXT solution in P2(1)/n: R1 0.475, Rweak 0.034, Alpha 0.016
REM <I/s>   2.630 for  103 systematic absences,  Orientation as input
REM Formula found by SHELXT:  C9 N O

CELL  0.71073   7.0400   9.2900  11.5500   90.000   97.870   90.000
ZERR   16.000   0.0014   0.0019   0.0023    0.000    0.030    0.000
LATT  1
SYMM 1/2-X, 1/2+Y, 1/2-Z
SFAC C N O
UNIT 16 16 16
L.S. 10
BOND
LIST 6
FMAP 2
PLAN 20
N001  2  0.22028  0.26092  0.38862 11.00000  0.10465   6.62
C002  1  0.34173  0.07647  0.27594 11.00000  0.07866   6.49
C003  1  0.54513  0.16847  0.44074 11.00000  0.09019   6.30
C004  1  0.55437  0.26253  0.53942 11.00000  0.08948   6.27
C005  1  0.44565  0.45004  0.66109 11.00000  0.08584   6.22
C006  1  0.32770  0.52098  0.71159 11.00000  0.11178   5.79
C007  1  0.41689  0.35107  0.56274 11.00000  0.07866   5.73
C008  1  0.35946  0.17096  0.36997 11.00000  0.08421   5.66
O009  3  0.13933  0.50307  0.69318 11.00000  0.12413   5.49
C00A  1  0.22890  0.36262  0.48451 11.00000  0.08815   5.42
C00B  1  0.41212  0.58668  0.82250 11.00000  0.10289   4.79
HKLF 4
END
