TITL 2_expF_1_2_expS_1_3_2_a.res in P2(1)/n
REM Old TITL 1 in P2/n
REM SHELXT solution in P2(1)/n: R1 0.378, Rweak 0.013, Alpha 0.034
REM <I/s>   1.517 for  106 systematic absences,  Orientation as input
REM Formula found by SHELXT:  C9 N O

CELL  0.71073   7.0400   9.2900  11.5500   90.000   97.870   90.000
ZERR   16.000   0.0014   0.0019   0.0023    0.000    0.030    0.000
LATT  1
SYMM 1/2-X, 1/2+Y, 1/2-Z
SFAC C N O
UNIT 16 16 16
L.S. 10
BOND
LIST 6
FMAP 2
PLAN 20
N001  2  0.65945  0.07537  0.72162 11.00000  0.04267   6.58
C002  1  0.55383  0.44653  0.33938 11.00000  0.04067   6.24
C003  1  0.77917  0.26322  0.60875 11.00000  0.04743   6.14
C004  1  0.46270  0.16974  0.55674 11.00000  0.04872   6.09
C005  1  0.58892  0.35677  0.43805 11.00000  0.03952   6.06
C006  1  0.67908  0.51090  0.28039 11.00000  0.04614   5.86
C007  1  0.75944  0.35697  0.51458 11.00000  0.04291   5.82
O008  3  0.85483  0.50494  0.30761 11.00000  0.05927   5.82
C009  1  0.63183  0.16851  0.62920 11.00000  0.04347   5.79
C00A  1  0.44180  0.26603  0.46149 11.00000  0.04869   5.74
C00B  1  0.58916  0.59858  0.17679 11.00000  0.05305   5.20
HKLF 4
END
