TITL 2_expF_1_5_expS_0_7_2_c.res in P2(1)
REM Old TITL 1 in P2/n
REM SHELXT solution in P2(1): R1 0.244, Rweak 0.048, Alpha 0.116
REM <I/s>   2.150 for    6 systematic absences,  Orientation as input
REM Formula found by SHELXT:  C14 N6 O2

CELL  0.71073   7.0400   9.2900  11.5500   90.000   97.870   90.000
ZERR   16.000   0.0014   0.0019   0.0023    0.000    0.030    0.000
LATT -1
SYMM -X, 1/2+Y, -Z
SFAC C N O
UNIT 16 16 16
L.S. 10
BOND
LIST 6
FMAP 2
PLAN 20
N001  2  0.87774  0.42898  0.38220 11.00000  0.03905   7.72
N002  2  0.79976  0.70382  0.08959 11.00000  0.03550   7.38
N003  2  0.83256  0.61824  0.18799 11.00000  0.03134   7.36
N004  2  0.53623  0.48700  0.86128 11.00000  0.04736   7.05
N005  2  0.84304  0.85188 -0.07607 11.00000  0.03397   6.67
N006  2  0.40973  0.67572  0.97029 11.00000  0.03746   6.58
C007  1  0.68489  0.52404  0.20942 11.00000  0.03232   6.30
O008  3  1.09590  0.76189  0.05374 11.00000  0.04225   6.22
C009  1  0.91672  0.32791  0.47335 11.00000  0.01981   6.16
C00A  1  0.43111  0.25135  0.52695 11.00000  0.02729   6.11
O00B  3  0.60849  0.25062  0.56360 11.00000  0.04541   6.00
C00C  1  0.50789  0.39223  0.76714 11.00000  0.02728   5.86
C00D  1  0.21968  0.59407  0.80466 11.00000  0.04152   5.86
C00E  1  0.92788  0.77769  0.03137 11.00000  0.02804   5.80
C00F  1  0.70507  0.43226  0.30545 11.00000  0.02734   5.80
C00G  1  0.30416  0.30869  0.59020 11.00000  0.02418   5.31
C00H  1  1.01101  0.60274  0.26077 11.00000  0.03400   5.28
C00I  1  1.02897  0.51416  0.35846 11.00000  0.03000   4.94
C00J  1  0.19521  0.49506  0.71018 11.00000  0.03322   4.77
C00K  1  0.34541  0.40525  0.68899 11.00000  0.03775   4.51
C00L  1  0.34007  0.14812  0.43167 11.00000  0.04648   4.06
C00M  1  0.38883  0.58985  0.87865 11.00000  0.03328   3.84
HKLF 4
END
