TITL 2_expF_1_2_expS_0_8_2_c.res in P2(1)
REM Old TITL 1 in P2/n
REM SHELXT solution in P2(1): R1 0.238, Rweak 0.067, Alpha 0.165
REM <I/s>   2.299 for    6 systematic absences,  Orientation as input
REM Formula found by SHELXT:  C16 N4 O2

CELL  0.71073   7.0400   9.2900  11.5500   90.000   97.870   90.000
ZERR   16.000   0.0014   0.0019   0.0023    0.000    0.030    0.000
LATT -1
SYMM -X, 1/2+Y, -Z
SFAC C N O
UNIT 16 16 16
L.S. 10
BOND
LIST 6
FMAP 2
PLAN 20
N001  2  0.11410  0.41659  0.62164 11.00000  0.04511   7.33
O002  3 -0.10513  0.75343  0.94073 11.00000  0.03272   6.99
N003  2  0.09052  0.33352  0.52293 11.00000  0.01517   6.86
N004  2  0.70177  0.30704  0.41276 11.00000  0.03654   6.53
N005  2  0.16192  0.61011  0.81160 11.00000  0.02962   6.52
C006  1  0.29840  0.42987  0.69302 11.00000  0.02893   6.32
C007  1  0.57091  0.24292  0.46941 11.00000  0.02705   6.27
C008  1  0.19400  0.70341  0.90741 11.00000  0.02065   6.14
C009  1  0.30982  0.52708  0.78422 11.00000  0.03443   6.07
C00A  1  0.64961  0.14951  0.56957 11.00000  0.02760   6.03
C00B  1 -0.03185  0.50888  0.63560 11.00000  0.03636   5.98
C00C  1  0.57887  0.68567  0.03703 11.00000  0.03214   5.83
C00D  1  0.49218  0.38882  0.23659 11.00000  0.02785   5.79
C00E  1  0.47055  0.48260  0.14213 11.00000  0.02444   5.61
C00F  1  0.06933  0.76848  0.97227 11.00000  0.02863   5.58
C00G  1 -0.00855  0.60268  0.73463 11.00000  0.02912   5.26
O00H  3  0.40396  0.23862  0.44231 11.00000  0.05084   5.04
C00I  1  0.78009  0.58770  0.19554 11.00000  0.03538   4.93
C00J  1  0.80954  0.49653  0.29507 11.00000  0.02429   4.69
C00K  1  0.66127  0.39639  0.31096 11.00000  0.03831   4.60
C00L  1  0.16765  0.85049  1.07676 11.00000  0.03272   4.17
C00M  1  0.61905  0.57819  0.11797 11.00000  0.02572   3.60
HKLF 4
END
