TITL 2_expF_1_4_expS_1_2_2_b.res in Pn
REM Old TITL 1 in P2/n
REM SHELXT solution in Pn: R1 0.355, Rweak 0.009, Alpha 0.004
REM <I/s>   1.508 for  100 systematic absences,  Orientation as input
REM Formula found by SHELXT:  C13 N7 O2

CELL  0.71073   7.0400   9.2900  11.5500   90.000   97.870   90.000
ZERR   16.000   0.0014   0.0019   0.0023    0.000    0.030    0.000
LATT -1
SYMM 1/2+X, -Y, 1/2+Z
SFAC C N O
UNIT 16 16 16
L.S. 10
BOND
LIST 6
FMAP 2
PLAN 20
N001  2  0.44674  0.79815  0.65939 11.00000  0.06856   7.33
N002  2  0.66127  0.32420  0.71915 11.00000  0.06712   6.87
N003  2  0.56088  0.98179  0.53739 11.00000  0.07934   6.79
C004  1  0.68048  0.76155  0.28343 11.00000  0.06220   6.78
N005  2  0.54142  1.08222  0.44286 11.00000  0.08599   6.72
N006  2  0.58431  0.60385  0.43390 11.00000  0.07228   6.67
N007  2  0.33423  1.17312  0.27527 11.00000  0.05807   6.66
N008  2  0.21830  0.98407  0.38813 11.00000  0.07483   6.64
C009  1  0.36672  1.08064  0.36588 11.00000  0.06334   6.07
O00A  3  0.85438  0.75759  0.30674 11.00000  0.07647   6.03
C00B  1  0.78515  0.51348  0.60507 11.00000  0.07205   5.99
C00C  1  0.45913  0.42133  0.55298 11.00000  0.06075   5.99
C00D  1  0.24340  0.89064  0.48404 11.00000  0.05893   5.91
C00E  1  0.76805  0.60426  0.51563 11.00000  0.06160   5.87
C00F  1  0.41240  0.89046  0.56010 11.00000  0.05691   5.61
O00G  3  0.14562  0.74704  0.68969 11.00000  0.07495   5.56
C00H  1  0.63363  0.41645  0.62703 11.00000  0.06238   5.52
C00I  1  0.40293  0.65243  0.82427 11.00000  0.06877   5.46
C00J  1  0.55348  0.69733  0.33909 11.00000  0.05659   5.31
C00K  1  0.58822  0.85266  0.17573 11.00000  0.07113   4.96
C00L  1  0.44596  0.51508  0.45609 11.00000  0.06394   4.90
C00M  1  0.32446  0.73761  0.72149 11.00000  0.06345   4.79
HKLF 4
END
