TITL 2_expF_1_2_expS_0_9_2_c.res in P2(1)
REM Old TITL 1 in P2/n
REM SHELXT solution in P2(1): R1 0.243, Rweak 0.043, Alpha 0.080
REM <I/s>   2.227 for    6 systematic absences,  Orientation as input
REM Formula found by SHELXT:  C13 N6 O3

CELL  0.71073   7.0400   9.2900  11.5500   90.000   97.870   90.000
ZERR   16.000   0.0014   0.0019   0.0023    0.000    0.030    0.000
LATT -1
SYMM -X, 1/2+Y, -Z
SFAC C N O
UNIT 16 16 16
L.S. 10
BOND
LIST 6
FMAP 2
PLAN 20
O001  3  0.30088  0.69229  0.58737 11.00000  0.04983   7.92
N002  2  0.38261  0.42135  0.88183 11.00000  0.03596   7.75
N003  2  1.03008  0.48603  0.36410 11.00000  0.04919   7.30
N004  2  0.91395  0.66748  0.47445 11.00000  0.02583   7.10
N005  2  0.19000  0.50547  0.70790 11.00000  0.04489   6.95
N006  2  0.70853  0.57122  0.30864 11.00000  0.03297   6.95
O007  3  0.60209  0.76189  0.55604 11.00000  0.05325   6.92
N008  2  0.92823  0.24191  0.02645 11.00000  0.04237   6.89
C009  1  0.50985  0.61382  0.76407 11.00000  0.03329   6.35
C00A  1  0.34256  0.60675  0.69083 11.00000  0.03286   6.27
C00B  1  0.35257  0.85034  0.42903 11.00000  0.02772   6.19
C00C  1  0.83380  0.39241  0.18603 11.00000  0.02513   6.01
C00D  1  0.41571  0.32055  0.96969 11.00000  0.02621   6.01
O00E  3  1.10221  0.24701  0.06044 11.00000  0.03454   5.77
C00F  1  0.80463  0.29583  0.09204 11.00000  0.02031   5.71
C00G  1  0.42817  0.76641  0.53224 11.00000  0.02382   5.52
C00H  1  1.00860  0.39798  0.26516 11.00000  0.02648   5.37
C00I  1  0.53247  0.51200  0.85708 11.00000  0.02663   5.34
C00J  1  0.21533  0.40924  0.80221 11.00000  0.04383   5.20
C00K  1  0.83061  0.14966 -0.07530 11.00000  0.03557   4.88
C00L  1  0.68982  0.47671  0.21042 11.00000  0.02694   4.59
C00M  1  0.88375  0.58480  0.37907 11.00000  0.03575   4.45
HKLF 4
END
