TITL 2_expF_1_4_expS_0_5_2_a.res in Pn
REM Old TITL 1 in P2/n
REM SHELXT solution in Pn: R1 0.247, Rweak 0.174, Alpha 0.123
REM <I/s>   0.967 for  100 systematic absences,  Orientation as input
REM Formula found by SHELXT:  C7 N8 O4

CELL  0.71073   7.0400   9.2900  11.5500   90.000   97.870   90.000
ZERR   16.000   0.0014   0.0019   0.0023    0.000    0.030    0.000
LATT -1
SYMM 1/2+X, -Y, 1/2+Z
SFAC C N O
UNIT 16 16 16
L.S. 10
BOND
LIST 6
FMAP 2
PLAN 20
O001  3  0.37106  0.57870  0.37269 11.00000  0.00475   9.95
C002  1  0.68297  0.26134  0.28077 11.00000  0.01647   9.16
O003  3  0.24679  0.39389  0.48743 11.00000  0.00010   8.49
N004  2  0.56677  0.19995  0.34577 11.00000  0.01212   7.42
N005  2  0.34713  0.68471  0.28218 11.00000  0.00575   7.19
N006  2  0.55521  0.48507  0.53862 11.00000  0.00415   7.09
N007  2  0.58827  0.35941  0.17838 11.00000  0.02008   7.04
N008  2  0.46341 -0.07968  0.55830 11.00000  0.00918   6.86
N009  2  0.59851  0.11103  0.43899 11.00000  0.03513   6.71
N00A  2  0.79640  0.01569  0.61354 11.00000  0.02024   6.58
O00B  3  0.85136  0.25955  0.31569 11.00000  0.02034   6.36
O00C  3  0.14864  0.24699  0.69519 11.00000  0.01916   5.70
C00D  1  0.46721  0.30224  0.66709 11.00000  0.01225   5.18
N00E  2  0.67403 -0.16338  0.72617 11.00000  0.02217   5.09
C00F  1  0.41741  0.38933  0.56324 11.00000  0.00694   4.90
C00G  1  0.23122  0.49196  0.39084 11.00000  0.01978   4.79
C00H  1  0.32429  0.23338  0.72232 11.00000  0.01237   3.44
C00I  1  0.43124  0.01092  0.45343 11.00000  0.03393   3.31
C00J  1  0.39920  0.15582  0.82162 11.00000  0.01745   3.26
HKLF 4
END
