TITL 2_expF_0_7_expS_1_1_2_a.res in Pn
REM Old TITL 1 in P2/n
REM SHELXT solution in Pn: R1 0.231, Rweak 0.136, Alpha 0.120
REM <I/s>   0.985 for  100 systematic absences,  Orientation as input
REM Formula found by SHELXT:  C11 N2 O7

CELL  0.71073   7.0400   9.2900  11.5500   90.000   97.870   90.000
ZERR   16.000   0.0014   0.0019   0.0023    0.000    0.030    0.000
LATT -1
SYMM 1/2+X, -Y, 1/2+Z
SFAC C N O
UNIT 16 16 16
L.S. 10
BOND
LIST 6
FMAP 2
PLAN 20
O001  3  0.78380  0.01508  0.61063 11.00000  0.00294   9.02
O002  3  0.46420 -0.08101  0.55477 11.00000  0.00715   8.99
O003  3  0.66850 -0.17332  0.72279 11.00000  0.00662   8.82
O004  3  0.45212  0.30147  0.66551 11.00000  0.02469   8.23
O005  3  0.14795  0.24950  0.68887 11.00000  0.01656   7.94
O006  3  0.37112  0.58208  0.37265 11.00000  0.03508   7.54
N007  2  0.40144  0.14679  0.82212 11.00000  0.02614   7.01
N008  2  0.44747  0.00919  0.45792 11.00000  0.02683   6.68
C009  1  0.58970  0.10586  0.43612 11.00000  0.02168   6.60
C00A  1  0.32200  0.23262  0.71850 11.00000  0.00966   6.43
C00B  1  0.24313  0.40159  0.48911 11.00000  0.01077   6.30
O00C  3  0.85205  0.26247  0.30786 11.00000  0.02970   5.72
C00D  1  0.67793  0.25821  0.27792 11.00000  0.02059   5.44
C00E  1  0.41516  0.38979  0.55771 11.00000  0.00435   5.36
C00F  1  0.76099  0.11556  0.51968 11.00000  0.01475   5.09
C00G  1  0.55484  0.20078  0.34385 11.00000  0.01041   4.93
C00H  1  0.56754  0.47751  0.53899 11.00000  0.01850   4.22
C00I  1  0.58542  0.35059  0.17788 11.00000  0.01538   3.94
C00J  1  0.33621  0.67536  0.27822 11.00000  0.02840   3.71
C00K  1  0.64147 -0.07908  0.63398 11.00000  0.01988   3.70
HKLF 4
END
