TITL 2_expF_1_1_expS_1_2_2_a.res in P2(1)/n
REM Old TITL 1 in P2/n
REM SHELXT solution in P2(1)/n: R1 0.297, Rweak 0.022, Alpha 0.057
REM <I/s>   1.457 for  106 systematic absences,  Orientation as input
REM Formula found by SHELXT:  C9 N O

CELL  0.71073   7.0400   9.2900  11.5500   90.000   97.870   90.000
ZERR   16.000   0.0014   0.0019   0.0023    0.000    0.030    0.000
LATT  1
SYMM 1/2-X, 1/2+Y, 1/2-Z
SFAC C N O
UNIT 16 16 16
L.S. 10
BOND
LIST 6
FMAP 2
PLAN 20
N001  2  0.66085  0.92348  0.72176 11.00000  0.03881   6.52
C002  1  0.55428  0.55236  0.34056 11.00000  0.03504   6.45
C003  1  0.77979  0.73711  0.60894 11.00000  0.04146   6.06
O004  3  0.85378  0.49439  0.30820 11.00000  0.05495   6.04
C005  1  0.67698  0.48772  0.27939 11.00000  0.04120   6.03
C006  1  0.58883  0.64356  0.43841 11.00000  0.03611   5.99
C007  1  0.46022  0.82838  0.55571 11.00000  0.04397   5.88
C008  1  0.63276  0.83165  0.62956 11.00000  0.03840   5.83
C009  1  0.75958  0.64265  0.51448 11.00000  0.04043   5.77
C00A  1  0.44051  0.73473  0.46121 11.00000  0.04447   5.66
C00B  1  0.58810  0.40175  0.17647 11.00000  0.04671   5.36
HKLF 4
END
