TITL 2_expF_0_6_expS_0_9_2_a.res in Pn
REM Old TITL 1 in P2/n
REM SHELXT solution in Pn: R1 0.262, Rweak 0.322, Alpha 0.166
REM <I/s>   0.882 for  100 systematic absences,  Orientation as input
REM Formula found by SHELXT:  C11 N2 O7

CELL  0.71073   7.0400   9.2900  11.5500   90.000   97.870   90.000
ZERR   16.000   0.0014   0.0019   0.0023    0.000    0.030    0.000
LATT -1
SYMM 1/2+X, -Y, 1/2+Z
SFAC C N O
UNIT 16 16 16
L.S. 10
BOND
LIST 6
FMAP 2
PLAN 20
O001  3  0.91464  0.10974  0.56080 11.00000  0.00010  11.04
O002  3  0.16770  0.67295  0.72105 11.00000  0.00010   9.95
O003  3 -0.05141  0.48268  0.45776 11.00000  0.00109   9.49
O004  3  0.65958  0.26236  0.68780 11.00000  0.01106   9.20
C005  1  0.17654  0.23181  0.28342 11.00000  0.00729   8.83
N006  2  0.14099  0.59423  0.62650 11.00000  0.00092   8.75
O007  3  1.05141 -0.07679  0.43970 11.00000  0.00688   7.71
N008  2  0.04742  0.30885  0.34320 11.00000  0.01580   6.88
C009  1  0.93977  0.20887  0.66048 11.00000  0.00010   6.38
C00A  1  0.29376  0.49266  0.61482 11.00000  0.00365   6.27
C00B  1  0.25400  0.40467  0.51419 11.00000  0.00010   6.26
C00C  1  0.92397  0.35087  0.82026 11.00000  0.00790   6.21
C00D  1  0.10770  0.15287  0.17974 11.00000  0.00010   5.37
C00E  1  0.73837  0.12156  0.48930 11.00000  0.01873   4.70
C00F  1  0.73537  0.02079  0.39038 11.00000  0.01055   4.63
O00G  3  0.36042  0.24850  0.30880 11.00000  0.01388   4.54
C00H  1  0.81764  0.26194  0.71908 11.00000  0.00754   4.12
O00I  3  0.46110  0.48923  0.68435 11.00000  0.30536   4.11
C00J  1 -0.04848  0.60270  0.53822 11.00000  0.04370   3.85
C00K  1  0.87910 -0.06715  0.36391 11.00000  0.01144   3.16
HKLF 4
END
