TITL 2_expF_1_1_expS_1_4_2_a.res in P2(1)/n
REM Old TITL 1 in P2/n
REM SHELXT solution in P2(1)/n: R1 0.375, Rweak 0.013, Alpha 0.024
REM <I/s>   1.376 for  106 systematic absences,  Orientation as input
REM Formula found by SHELXT:  C9 N O

CELL  0.71073   7.0400   9.2900  11.5500   90.000   97.870   90.000
ZERR   16.000   0.0014   0.0019   0.0023    0.000    0.030    0.000
LATT  1
SYMM 1/2-X, 1/2+Y, 1/2-Z
SFAC C N O
UNIT 16 16 16
L.S. 10
BOND
LIST 6
FMAP 2
PLAN 20
N001  2  0.33990  0.92461  0.27866 11.00000  0.04232   6.56
C002  1  0.44647  0.55253  0.66011 11.00000  0.04163   6.34
C003  1  0.54047  0.82818  0.44393 11.00000  0.05154   6.10
C004  1  0.21979  0.73725  0.39146 11.00000  0.04970   6.07
C005  1  0.41148  0.64235  0.56275 11.00000  0.04250   6.01
C006  1  0.32235  0.48860  0.71986 11.00000  0.04612   5.96
O007  3  0.14499  0.49510  0.69183 11.00000  0.05878   5.92
C008  1  0.36661  0.83204  0.37038 11.00000  0.04559   5.85
C009  1  0.23841  0.64270  0.48498 11.00000  0.04475   5.68
C00A  1  0.55897  0.73329  0.53836 11.00000  0.05001   5.66
C00B  1  0.41296  0.40203  0.82346 11.00000  0.05408   5.29
HKLF 4
END
