TITL 2_expF_1_2_expS_1_0_2_a.res in P2(1)/n
REM Old TITL 1 in P2/n
REM SHELXT solution in P2(1)/n: R1 0.276, Rweak 0.030, Alpha 0.075
REM <I/s>   1.380 for  106 systematic absences,  Orientation as input
REM Formula found by SHELXT:  C10 O

CELL  0.71073   7.0400   9.2900  11.5500   90.000   97.870   90.000
ZERR   16.000   0.0014   0.0019   0.0023    0.000    0.030    0.000
LATT  1
SYMM 1/2-X, 1/2+Y, 1/2-Z
SFAC C N O
UNIT 16 16 16
L.S. 10
BOND
LIST 6
FMAP 2
PLAN 20
C001  1  0.44818  0.44777  0.65972 11.00000  0.03210   6.44
C002  1  0.33751  0.07707  0.27854 11.00000  0.02867   6.43
O003  3  0.14925  0.50529  0.69167 11.00000  0.05380   6.12
C004  1  0.32104  0.51269  0.72175 11.00000  0.03502   6.10
C005  1  0.21885  0.26262  0.39054 11.00000  0.03795   6.02
C006  1  0.41238  0.35665  0.56153 11.00000  0.03521   5.97
C007  1  0.53716  0.17066  0.44395 11.00000  0.04077   5.86
C008  1  0.36733  0.16838  0.37025 11.00000  0.03763   5.82
C009  1  0.23946  0.35684  0.48585 11.00000  0.03801   5.78
C00A  1  0.56110  0.26495  0.54023 11.00000  0.04015   5.58
C00B  1  0.40958  0.60074  0.82345 11.00000  0.04121   5.37
HKLF 4
END
