TITL 2_expF_1_3_expS_1_2_2_b.res in Pn
REM Old TITL 1 in P2/n
REM SHELXT solution in Pn: R1 0.332, Rweak 0.010, Alpha 0.009
REM <I/s>   1.452 for  100 systematic absences,  Orientation as input
REM Formula found by SHELXT:  C11 N6 O5

CELL  0.71073   7.0400   9.2900  11.5500   90.000   97.870   90.000
ZERR   16.000   0.0014   0.0019   0.0023    0.000    0.030    0.000
LATT -1
SYMM 1/2+X, -Y, 1/2+Z
SFAC C N O
UNIT 16 16 16
L.S. 10
BOND
LIST 6
FMAP 2
PLAN 20
O001  3  0.83455  1.17049  0.27421 11.00000  0.06175   8.39
O002  3  0.72552  0.98687  0.39042 11.00000  0.07994   8.35
O003  3  1.04824  1.07708  0.43987 11.00000  0.09683   8.06
O004  3  0.34738  0.75621  0.30611 11.00000  0.07130   7.73
N005  2  0.91525  0.89353  0.55920 11.00000  0.05826   7.21
N006  2 -0.05789  0.51568  0.45605 11.00000  0.06020   7.15
N007  2  0.13742  0.41650  0.63171 11.00000  0.06579   7.09
N008  2  0.26299  0.60884  0.51748 11.00000  0.06013   6.97
N009  2  0.94609  0.80484  0.65580 11.00000  0.07005   6.61
N00A  2  0.05146  0.69897  0.33524 11.00000  0.05524   6.55
C00B  1  0.09469  0.85159  0.17687 11.00000  0.06149   6.27
C00C  1  0.17470  0.76677  0.27982 11.00000  0.05672   6.24
C00D  1  0.15528  0.32643  0.71867 11.00000  0.04472   6.18
C00E  1  0.74132  0.89610  0.48815 11.00000  0.05147   6.07
C00F  1  1.05789  0.98616  0.53603 11.00000  0.06294   5.99
C00G  1  0.82001  0.73763  0.71966 11.00000  0.06027   5.85
C00H  1  0.28181  0.51265  0.60758 11.00000  0.05623   5.19
C00I  1  0.08530  0.60481  0.43317 11.00000  0.05599   5.17
C00J  1 -0.03691  0.41940  0.55293 11.00000  0.05154   5.12
C00K  1  0.86469  1.08013  0.36980 11.00000  0.05303   5.09
C00L  1  0.91063  0.65308  0.82313 11.00000  0.07366   4.84
O00M  3  0.63910  0.74596  0.69036 11.00000  0.07190   4.49
HKLF 4
END
