TITL 2_expF_1_2_expS_0_9_2_a.res in P2(1)/n
REM Old TITL 1 in P2/n
REM SHELXT solution in P2(1)/n: R1 0.266, Rweak 0.043, Alpha 0.085
REM <I/s>   1.256 for  106 systematic absences,  Orientation as input
REM Formula found by SHELXT:  C9 N O

CELL  0.71073   7.0400   9.2900  11.5500   90.000   97.870   90.000
ZERR   16.000   0.0014   0.0019   0.0023    0.000    0.030    0.000
LATT  1
SYMM 1/2-X, 1/2+Y, 1/2-Z
SFAC C N O
UNIT 16 16 16
L.S. 10
BOND
LIST 6
FMAP 2
PLAN 20
N001  2  0.55146  0.55165  0.33949 11.00000  0.03478   6.51
C002  1  0.66429  0.92377  0.72184 11.00000  0.02227   6.42
O003  3  0.85008  0.49367  0.30829 11.00000  0.04389   6.23
C004  1  0.78117  0.73685  0.60969 11.00000  0.03101   6.10
C005  1  0.58797  0.64274  0.43814 11.00000  0.02854   6.06
C006  1  0.67809  0.48763  0.27868 11.00000  0.02758   6.02
C007  1  0.46166  0.82861  0.55537 11.00000  0.03284   5.83
C008  1  0.63321  0.83060  0.63034 11.00000  0.03045   5.79
C009  1  0.76023  0.64260  0.51467 11.00000  0.03058   5.68
C00A  1  0.43943  0.73531  0.45930 11.00000  0.03215   5.49
C00B  1  0.59054  0.39926  0.17652 11.00000  0.03301   5.36
HKLF 4
END
