TITL 2_expF_1_4_expS_1_1_2_b.res in Pn
REM Old TITL 1 in P2/n
REM SHELXT solution in Pn: R1 0.337, Rweak 0.010, Alpha 0.008
REM <I/s>   1.363 for  100 systematic absences,  Orientation as input
REM Formula found by SHELXT:  C16 N3 O4

CELL  0.71073   7.0400   9.2900  11.5500   90.000   97.870   90.000
ZERR   16.000   0.0014   0.0019   0.0023    0.000    0.030    0.000
LATT -1
SYMM 1/2+X, -Y, 1/2+Z
SFAC C N O
UNIT 16 16 16
L.S. 10
BOND
LIST 6
FMAP 2
PLAN 20
N001  2  0.46461  0.51400  0.14411 11.00000  0.06388   7.45
O002  3  0.57960  0.32731  0.02863 11.00000  0.05357   7.41
N003  2  0.69323  0.70407  0.41242 11.00000  0.05393   7.34
O004  3  0.59687  0.25885  0.55860 11.00000  0.06722   7.23
N005  2  0.20586 -0.08218  0.80532 11.00000  0.05607   6.79
C006  1  0.42241  0.26667  0.53625 11.00000  0.04788   6.63
C007  1  0.49091  0.60660  0.23738 11.00000  0.04559   6.59
C008  1  0.65822  0.60940  0.31467 11.00000  0.05308   6.35
C009  1  0.19044  0.00873  0.71452 11.00000  0.05035   6.25
C00A  1  0.60803  0.42023  0.12021 11.00000  0.04984   6.23
C00B  1  0.33092  0.10329  0.68948 11.00000  0.04521   6.16
C00C  1  0.40527 -0.17500  0.97137 11.00000  0.04632   6.16
C00D  1  0.78436  0.42548  0.19151 11.00000  0.06561   6.06
C00E  1  0.64893  0.85026  0.57472 11.00000  0.05076   5.79
C00F  1  0.37563 -0.08476  0.88119 11.00000  0.05383   5.51
C00G  1  0.51643  0.10603  0.77037 11.00000  0.05394   5.43
C00H  1  0.80956  0.52496  0.29280 11.00000  0.05537   5.37
C00I  1  0.29881  0.19208  0.59164 11.00000  0.04556   5.36
C00J  1  0.53024  0.01178  0.86146 11.00000  0.05769   5.30
C00K  1  0.56408  0.75697  0.47508 11.00000  0.05333   5.16
C00L  1  0.32778  0.34903  0.42559 11.00000  0.06321   4.79
O00M  3  0.39012  0.75491  0.44383 11.00000  0.05957   4.66
O00N  3  0.35199  0.64110  0.29459 11.00000  0.38701   3.08
HKLF 4
END
