TITL 2_expF_1_1_expS_1_4_2_b.res in Pn
REM Old TITL 1 in P2/n
REM SHELXT solution in Pn: R1 0.345, Rweak 0.012, Alpha 0.013
REM <I/s>   1.380 for  100 systematic absences,  Orientation as input
REM Formula found by SHELXT:  C17 N2 O3

CELL  0.71073   7.0400   9.2900  11.5500   90.000   97.870   90.000
ZERR   16.000   0.0014   0.0019   0.0023    0.000    0.030    0.000
LATT -1
SYMM 1/2+X, -Y, 1/2+Z
SFAC C N O
UNIT 16 16 16
L.S. 10
BOND
LIST 6
FMAP 2
PLAN 20
O001  3  0.16718  0.67781  0.72135 11.00000  0.05923   7.48
N002  2  0.95285  0.20099  0.66337 11.00000  0.04612   7.40
N003  2  0.28105  0.48723  0.60990 11.00000  0.06431   7.08
C004  1  1.03870 -0.07936  0.44706 11.00000  0.04664   6.49
C005  1  0.13985  0.58082  0.63000 11.00000  0.04961   6.17
C006  1 -0.04263  0.57830  0.55900 11.00000  0.06585   6.13
C007  1  0.91476  0.34713  0.82373 11.00000  0.05383   6.11
C008  1  0.92039  0.10675  0.56728 11.00000  0.04364   6.10
O009  3  0.65363  0.25617  0.69370 11.00000  0.06351   6.06
C00A  1  0.09555  0.39349  0.44181 11.00000  0.05097   6.05
C00B  1  1.05952  0.01387  0.54211 11.00000  0.04365   6.03
C00C  1  0.82970  0.26366  0.72240 11.00000  0.05212   6.00
C00D  1  0.84460 -0.16993  0.27813 11.00000  0.04078   5.87
C00E  1  0.26779  0.39618  0.51652 11.00000  0.04792   5.80
O00F  3  0.36276  0.24534  0.30901 11.00000  0.06100   5.72
C00G  1  0.74332  0.11019  0.48586 11.00000  0.05257   5.59
C00H  1  0.18493  0.24077  0.28481 11.00000  0.05092   5.58
C00I  1  0.71817  0.01371  0.39183 11.00000  0.05704   5.46
C00J  1 -0.05952  0.48213  0.46384 11.00000  0.06723   5.38
C00K  1  0.87157 -0.08369  0.36980 11.00000  0.05316   5.30
C00L  1  0.06056  0.30651  0.34290 11.00000  0.05881   5.00
C00M  1  0.09188  0.14839  0.17627 11.00000  0.06576   4.03
HKLF 4
END
