TITL 2_expF_0_7_expS_1_5_2_b.res in Pn
REM Old TITL 1 in P2/n
REM SHELXT solution in Pn: R1 0.241, Rweak 0.045, Alpha 0.029
REM <I/s>   1.175 for  100 systematic absences,  Orientation as input
REM Formula found by SHELXT:  C9 N4 O8

CELL  0.71073   7.0400   9.2900  11.5500   90.000   97.870   90.000
ZERR   16.000   0.0014   0.0019   0.0023    0.000    0.030    0.000
LATT -1
SYMM 1/2+X, -Y, 1/2+Z
SFAC C N O
UNIT 16 16 16
L.S. 10
BOND
LIST 6
FMAP 2
PLAN 20
N001  2  0.09254  0.10732  0.43587 11.00000  0.00299  10.77
O002  3  0.27987  0.01454  0.60514 11.00000  0.03445   9.01
N003  2  0.87123  0.58431  0.36857 11.00000  0.02948   8.78
O004  3  0.05472  0.19792  0.33698 11.00000  0.03394   8.62
O005  3  0.65466  0.24201  0.68562 11.00000  0.03187   8.50
O006  3  0.09325  0.35125  0.17551 11.00000  0.04289   8.00
O007  3 -0.03162 -0.07609  0.55275 11.00000  0.02616   7.93
O008  3  0.17244 -0.16977  0.72327 11.00000  0.02879   7.35
C009  1  0.82723  0.23549  0.71423 11.00000  0.02388   7.19
O00A  3  0.84729  0.68184  0.28139 11.00000  0.04585   6.91
N00B  2  1.05876  0.48378  0.53954 11.00000  0.03667   6.75
N00C  2  0.74621  0.39433  0.47878 11.00000  0.03502   6.63
C00D  1  0.18515  0.26058  0.27305 11.00000  0.02503   6.51
C00E  1  0.94994  0.30243  0.65710 11.00000  0.02558   5.84
C00F  1  0.26991  0.10827  0.50977 11.00000  0.03044   5.67
O00G  3  0.35847  0.25421  0.30273 11.00000  0.04000   5.65
C00H  1 -0.05876  0.01025  0.45769 11.00000  0.02311   5.55
C00I  1  1.05666  0.58728  0.44417 11.00000  0.06642   4.76
C00J  1  0.91242  0.14898  0.82449 11.00000  0.03496   4.66
C00K  1  0.71146  0.48610  0.38554 11.00000  0.03801   4.60
C00L  1  0.13480 -0.07553  0.63033 11.00000  0.03311   4.10
HKLF 4
END
