TITL 2_expF_0_6_expS_1_4_2_b.res in Pn
REM Old TITL 1 in P2/n
REM SHELXT solution in Pn: R1 0.227, Rweak 0.111, Alpha 0.080
REM <I/s>   1.020 for  100 systematic absences,  Orientation as input
REM Formula found by SHELXT:  C11 N3 O8

CELL  0.71073   7.0400   9.2900  11.5500   90.000   97.870   90.000
ZERR   16.000   0.0014   0.0019   0.0023    0.000    0.030    0.000
LATT -1
SYMM 1/2+X, -Y, 1/2+Z
SFAC C N O
UNIT 16 16 16
L.S. 10
BOND
LIST 6
FMAP 2
PLAN 20
O001  3  0.33171  0.74741  0.31195 11.00000  0.02162  10.86
N002  2  0.06826  0.88857  0.44157 11.00000  0.01681   9.20
O003  3  0.81735  0.32013  0.28594 11.00000  0.01105   9.08
O004  3  0.03950  0.80438  0.34562 11.00000  0.01795   9.06
O005  3  0.07257  0.65396  0.17624 11.00000  0.04760   8.96
N006  2  0.80336  0.76303  0.72748 11.00000  0.01763   8.80
O007  3 -0.04898  1.08689  0.55228 11.00000  0.02041   8.78
O008  3  0.26608  0.98615  0.62105 11.00000  0.03009   8.76
O009  3  0.73107  0.61141  0.49040 11.00000  0.04383   7.90
C00A  1  0.84352  0.41856  0.37241 11.00000  0.02467   7.78
N00B  2  1.06262  0.51480  0.54725 11.00000  0.03371   6.88
C00C  1  0.11240  1.07923  0.63288 11.00000  0.01097   6.25
C00D  1 -0.06262  0.98658  0.46650 11.00000  0.01091   6.22
C00E  1  0.93899  0.70795  0.66579 11.00000  0.02263   6.03
C00F  1  0.16212  0.73652  0.28660 11.00000  0.02130   5.76
C00G  1  0.70068  0.51315  0.40040 11.00000  0.02453   5.35
C00H  1  0.24909  0.89742  0.51902 11.00000  0.00851   5.28
C00I  1  0.14795  1.15902  0.73985 11.00000  0.02947   5.18
C00J  1  1.03252  0.43623  0.43611 11.00000  0.03404   4.79
C00K  1  0.89132  0.60346  0.56596 11.00000  0.02556   4.57
O00L  3  0.88863  0.85508  0.82376 11.00000  0.03474   4.52
C00M  1  0.62500  0.76000  0.69291 11.00000  0.01431   4.22
HKLF 4
END
