TITL 2_expF_0_7_expS_0_9_2_b.res in P2(1)
REM Old TITL 1 in P2/n
REM SHELXT solution in P2(1): R1 0.262, Rweak 0.249, Alpha 0.260
REM <I/s>   1.572 for    6 systematic absences,  Orientation as input
REM Formula found by SHELXT:  C15 N O7

CELL  0.71073   7.0400   9.2900  11.5500   90.000   97.870   90.000
ZERR   16.000   0.0014   0.0019   0.0023    0.000    0.030    0.000
LATT -1
SYMM -X, 1/2+Y, -Z
SFAC C N O
UNIT 16 16 16
L.S. 10
BOND
LIST 6
FMAP 2
PLAN 20
O001  3  0.19893  0.64131  0.91291 11.00000  0.01191   9.43
O002  3  0.39175  0.19275  0.43906 11.00000  0.00291   8.79
N003  2  0.06836  0.71206  0.96859 11.00000  0.01260   8.76
C004  1  0.60066  0.53218  0.12709 11.00000  0.02357   7.78
O005  3 -0.03018  0.46965  0.63840 11.00000  0.01231   7.58
O006  3  0.80891  0.42558  0.28732 11.00000  0.04409   7.53
C007  1  0.80815  0.51214  0.19477 11.00000  0.01040   6.39
O008  3  0.58582  0.61135  0.02206 11.00000  0.00010   6.34
C009  1  0.66561  0.32952  0.30872 11.00000  0.00171   6.21
C00A  1  0.07773  0.25123  0.54091 11.00000  0.01298   6.14
C00B  1  0.14420  0.79194  1.06658 11.00000  0.00418   6.01
C00C  1 -0.00130  0.56662  0.73394 11.00000  0.01072   5.98
C00D  1  0.67033  0.09386  0.57837 11.00000  0.01234   5.96
C00E  1  0.15743  0.54755  0.81157 11.00000  0.01352   5.94
C00F  1  0.46939  0.45160  0.13324 11.00000  0.03584   5.50
C00G  1  0.48694  0.34564  0.23521 11.00000  0.00133   5.42
C00H  1  0.28422  0.35685  0.69481 11.00000  0.00545   5.13
C00I  1  0.57046  0.18274  0.47461 11.00000  0.01749   5.02
C00J  1  0.12380  0.37208  0.61581 11.00000  0.00010   4.96
O00K  3 -0.09052  0.71395  0.94329 11.00000  0.02992   4.65
C00L  1  0.68989  0.23915  0.40471 11.00000  0.01835   4.25
C00M  1  0.31477  0.45638  0.79245 11.00000  0.00200   3.67
O00N  3  0.16726  0.90614  1.06485 11.00000  0.13344   3.53
HKLF 4
END
