TITL 2_expF_0_6_expS_0_6_2_a.res in Pn
REM Old TITL 1 in P2/n
REM SHELXT solution in Pn: R1 0.317, Rweak 0.597, Alpha 0.222
REM <I/s>   0.853 for   97 systematic absences,  Orientation as input
REM Formula found by SHELXT:  C6 N3 O5

CELL  0.71073   7.0400   9.2900  11.5500   90.000   97.870   90.000
ZERR   16.000   0.0014   0.0019   0.0023    0.000    0.030    0.000
LATT -1
SYMM 1/2+X, -Y, 1/2+Z
SFAC C N O
UNIT 16 16 16
L.S. 10
BOND
LIST 6
FMAP 2
PLAN 20
O001  3  0.44171  1.07796  0.21726 11.00000  0.00010  11.75
O002  3  0.16370  0.39468  0.78274 11.00000  0.00010   8.64
N003  2  0.25802  0.23181  0.62376 11.00000  0.00010   8.12
O004  3  0.31252  0.89055  0.32594 11.00000  0.00010   7.26
N005  2  0.62354  0.97988  0.38541 11.00000  0.00010   7.19
N006  2  0.14146  0.30045  0.68749 11.00000  0.00010   6.55
C007  1  0.17357  0.14645  0.52502 11.00000  0.00010   6.39
C008  1  0.21648  0.74025  0.53773 11.00000  0.00010   6.34
C009  1  0.73889  0.32216  0.56194 11.00000  0.00010   5.66
C00A  1  0.85854  0.51136  0.45226 11.00000  0.00010   5.16
O00B  3  0.57344  0.82244  0.50335 11.00000  0.20447   4.73
O00C  3  0.41908  0.23835  0.66125 11.00000  0.02155   4.44
C00D  1  0.49375  0.65641  0.65992 11.00000  0.00010   4.40
C00E  1  0.62238  0.36595  0.68643 11.00000  0.10841   3.20
HKLF 4
END
