TITL 2_expF_0_8_expS_0_7_2_a.res in Pn
REM Old TITL 1 in P2/n
REM SHELXT solution in Pn: R1 0.271, Rweak 0.311, Alpha 0.183
REM <I/s>   0.891 for  100 systematic absences,  Orientation as input
REM Formula found by SHELXT:  C9 N4 O7

CELL  0.71073   7.0400   9.2900  11.5500   90.000   97.870   90.000
ZERR   16.000   0.0014   0.0019   0.0023    0.000    0.030    0.000
LATT -1
SYMM 1/2+X, -Y, 1/2+Z
SFAC C N O
UNIT 16 16 16
L.S. 10
BOND
LIST 6
FMAP 2
PLAN 20
C001  1  0.16249  0.23296  0.29177 11.00000  0.00010  10.28
O002  3  0.24049  0.39623  0.52368 11.00000  0.00010  10.15
O003  3  1.02863 -0.07830  0.45600 11.00000  0.01029   8.96
O004  3  0.34060  0.24372  0.32502 11.00000  0.00971   8.46
O005  3  0.10358  0.57608  0.64215 11.00000  0.01461   8.00
C006  1  0.07613  0.40135  0.44176 11.00000  0.00098   7.70
O007  3  1.05154  0.01653  0.55313 11.00000  0.01713   7.65
N008  2  0.93510  0.20015  0.68149 11.00000  0.03173   7.00
N009  2  0.88583  0.35275  0.82347 11.00000  0.01283   6.99
N00A  2  0.68449  0.01825  0.39974 11.00000  0.03345   6.79
N00B  2  0.15936  0.67908  0.73432 11.00000  0.01372   6.72
C00C  1  0.03631  0.29755  0.35791 11.00000  0.00010   5.97
C00D  1  0.26173  0.48800  0.62146 11.00000  0.00010   5.74
C00E  1  0.82297 -0.16988  0.28688 11.00000  0.00010   5.49
C00F  1  0.63869  0.26024  0.70301 11.00000  0.00150   5.31
C00G  1  0.06286  0.14983  0.17653 11.00000  0.00866   5.17
O00H  3 -0.05154  0.49992  0.47569 11.00000  0.05596   4.41
C00I  1  0.89164  0.12756  0.55999 11.00000  0.01175   4.26
C00J  1  0.82811 -0.09241  0.39161 11.00000  0.03198   3.83
O00K  3  0.39075  0.44764  0.69838 11.00000  0.19674   3.54
HKLF 4
END
