TITL 2_expF_1_4_expS_0_9_2_b.res in Pn
REM Old TITL 1 in P2/n
REM SHELXT solution in Pn: R1 0.258, Rweak 0.022, Alpha 0.008
REM <I/s>   1.373 for  100 systematic absences,  Orientation as input
REM Formula found by SHELXT:  C15 N3 O4

CELL  0.71073   7.0400   9.2900  11.5500   90.000   97.870   90.000
ZERR   16.000   0.0014   0.0019   0.0023    0.000    0.030    0.000
LATT -1
SYMM 1/2+X, -Y, 1/2+Z
SFAC C N O
UNIT 16 16 16
L.S. 10
BOND
LIST 6
FMAP 2
PLAN 20
O001  3  0.17021 -0.17086  0.72429 11.00000  0.03690   8.38
O002  3 -0.04548 -0.08241  0.55474 11.00000  0.06489   8.34
O003  3  0.65161  0.23898  0.69189 11.00000  0.04306   7.73
N004  2  0.27775  0.01340  0.60921 11.00000  0.03279   7.39
N005  2  0.73896  0.39055  0.48746 11.00000  0.05340   7.29
C006  1  0.08879  0.10607  0.43785 11.00000  0.03404   6.58
N007  2  0.05521  0.20030  0.33950 11.00000  0.03789   6.54
C008  1  0.87115  0.58311  0.37094 11.00000  0.03816   6.30
C009  1  0.94767  0.30378  0.65944 11.00000  0.03789   6.20
C00A  1  0.82637  0.22839  0.71474 11.00000  0.03789   6.10
C00B  1  0.91475  0.14588  0.82308 11.00000  0.04386   6.06
C00C  1  1.06062  0.48607  0.54065 11.00000  0.04313   5.98
C00D  1  0.18159  0.25435  0.27469 11.00000  0.03520   5.84
C00E  1  0.91391  0.39355  0.56096 11.00000  0.04024   5.55
C00F  1 -0.06062  0.01571  0.46014 11.00000  0.04023   5.53
C00G  1  0.13669 -0.08055  0.63172 11.00000  0.03997   5.35
C00H  1  0.70718  0.48596  0.39037 11.00000  0.06587   5.19
C00I  1  0.09502  0.34567  0.17692 11.00000  0.04296   4.89
C00J  1  0.84962  0.67687  0.28222 11.00000  0.04202   4.72
C00K  1  0.25855  0.10415  0.51590 11.00000  0.03494   4.31
O00L  3  0.35775  0.25176  0.30741 11.00000  0.06310   4.30
C00M  1  1.03627  0.57812  0.44047 11.00000  0.04531   3.64
HKLF 4
END
