TITL 2_expF_1_5_expS_1_2_2_a.res in P2(1)/n
REM Old TITL 1 in P2/n
REM SHELXT solution in P2(1)/n: R1 0.408, Rweak 0.013, Alpha 0.019
REM <I/s>   1.675 for  106 systematic absences,  Orientation as input
REM Formula found by SHELXT:  C9 N O

CELL  0.71073   7.0400   9.2900  11.5500   90.000   97.870   90.000
ZERR   16.000   0.0014   0.0019   0.0023    0.000    0.030    0.000
LATT  1
SYMM 1/2-X, 1/2+Y, 1/2-Z
SFAC C N O
UNIT 16 16 16
L.S. 10
BOND
LIST 6
FMAP 2
PLAN 20
N001  2  0.66092  0.07449  0.72354 11.00000  0.07042   6.74
C002  1  0.78230  0.26351  0.60870 11.00000  0.06987   6.26
C003  1  0.55162  0.44508  0.33959 11.00000  0.06138   6.24
C004  1  0.46084  0.17216  0.55776 11.00000  0.06980   6.21
C005  1  0.58442  0.35685  0.43346 11.00000  0.06245   6.11
C006  1  0.76569  0.35810  0.51445 11.00000  0.06771   5.85
C007  1  0.67865  0.51240  0.28117 11.00000  0.06784   5.80
C008  1  0.44327  0.26335  0.45833 11.00000  0.06584   5.76
C009  1  0.63210  0.17101  0.63154 11.00000  0.07127   5.76
O00A  3  0.85484  0.50374  0.30948 11.00000  0.08343   5.70
C00B  1  0.59181  0.60113  0.17608 11.00000  0.08126   5.23
HKLF 4
END
