TITL 2_expF_0_6_expS_1_5_2_c.res in P2(1)
REM Old TITL 1 in P2/n
REM SHELXT solution in P2(1): R1 0.248, Rweak 0.095, Alpha 0.147
REM <I/s>   2.139 for    6 systematic absences,  Orientation as input
REM Formula found by SHELXT:  C14 N3 O4

CELL  0.71073   7.0400   9.2900  11.5500   90.000   97.870   90.000
ZERR   16.000   0.0014   0.0019   0.0023    0.000    0.030    0.000
LATT -1
SYMM -X, 1/2+Y, -Z
SFAC C N O
UNIT 16 16 16
L.S. 10
BOND
LIST 6
FMAP 2
PLAN 20
O001  3  0.71001  0.42621  0.30377 11.00000  0.01506   8.54
O002  3  1.10187  0.76260  0.05787 11.00000  0.02611   7.70
N003  2  0.69619  0.52679  0.20731 11.00000  0.02616   7.32
C004  1  0.42409  0.24329  0.52615 11.00000  0.02219   7.01
N005  2  0.91393  0.32579  0.47274 11.00000  0.02720   6.91
N006  2  0.30643  0.30025  0.58938 11.00000  0.02105   6.74
C007  1  0.38339  0.58788  0.87964 11.00000  0.01885   6.53
C008  1  0.82945  0.61720  0.18950 11.00000  0.00772   6.52
C009  1  1.03507  0.51212  0.36097 11.00000  0.02616   6.18
C00A  1  0.52779  0.48502  0.85955 11.00000  0.01925   5.90
C00B  1  0.51013  0.40232  0.76310 11.00000  0.01888   5.83
C00C  1  0.79770  0.69600  0.08980 11.00000  0.01842   5.82
C00D  1  0.34508  0.14823  0.42769 11.00000  0.02911   5.74
O00E  3  0.41410  0.67522  0.97192 11.00000  0.03499   5.61
C00F  1  1.00856  0.61621  0.26600 11.00000  0.02149   5.29
O00G  3  0.60218  0.24937  0.56025 11.00000  0.04016   5.27
C00H  1  0.93320  0.76774  0.03345 11.00000  0.01666   5.22
C00I  1  0.87987  0.42773  0.38048 11.00000  0.02413   5.22
C00J  1  0.35214  0.40755  0.68618 11.00000  0.03437   5.16
C00K  1  0.84305  0.85177 -0.07336 11.00000  0.01913   4.96
C00L  1  0.18418  0.50232  0.71215 11.00000  0.02478   3.95
HKLF 4
END
