TITL 2_expF_0_9_expS_0_8_2_a.res in Pn
REM Old TITL 1 in P2/n
REM SHELXT solution in Pn: R1 0.237, Rweak 0.163, Alpha 0.091
REM <I/s>   0.960 for  100 systematic absences,  Orientation as input
REM Formula found by SHELXT:  C12 N4 O5

CELL  0.71073   7.0400   9.2900  11.5500   90.000   97.870   90.000
ZERR   16.000   0.0014   0.0019   0.0023    0.000    0.030    0.000
LATT -1
SYMM 1/2+X, -Y, 1/2+Z
SFAC C N O
UNIT 16 16 16
L.S. 10
BOND
LIST 6
FMAP 2
PLAN 20
O001  3  0.74736  0.10821  0.48933 11.00000  0.00010  11.38
N002  2  0.87191 -0.07768  0.37433 11.00000  0.00010  10.89
C003  1  0.18280  0.23135  0.28726 11.00000  0.01054   9.42
O004  3  0.35898  0.24452  0.31576 11.00000  0.02401   8.74
O005  3  0.95890  0.20523  0.66493 11.00000  0.01985   8.64
C006  1  0.72874  0.01988  0.39453 11.00000  0.00761   7.47
O007  3 -0.02958  0.58042  0.55396 11.00000  0.02780   7.25
N008  2  0.16280  0.67734  0.71959 11.00000  0.02916   7.02
N009  2  0.08975  0.37922  0.44701 11.00000  0.03488   7.01
N00A  2  0.90766  0.34767  0.82310 11.00000  0.01230   6.67
C00B  1  1.05662  0.01823  0.54570 11.00000  0.01362   6.17
C00C  1  0.83741 -0.17325  0.27813 11.00000  0.00040   6.14
C00D  1  0.08212  0.14942  0.17690 11.00000  0.02471   5.57
C00E  1 -0.06184  0.48870  0.46675 11.00000  0.01929   5.47
C00F  1  0.06858  0.30769  0.34446 11.00000  0.01841   5.20
O00G  3  0.65181  0.26109  0.69529 11.00000  0.02160   5.20
C00H  1  0.29532  0.49876  0.61962 11.00000  0.01738   4.71
C00I  1  0.91158  0.09840  0.56888 11.00000  0.00699   4.42
C00J  1  0.82279  0.25812  0.72709 11.00000  0.01608   4.09
C00K  1  1.06184 -0.07471  0.44305 11.00000  0.03512   3.83
C00L  1  0.58385  0.02937  0.33065 11.00000  0.09443   3.70
HKLF 4
END
