TITL 2_expF_0_6_expS_1_5_2_b.res in Pn
REM Old TITL 1 in P2/n
REM SHELXT solution in Pn: R1 0.230, Rweak 0.085, Alpha 0.086
REM <I/s>   1.061 for  100 systematic absences,  Orientation as input
REM Formula found by SHELXT:  C15 N3 O3

CELL  0.71073   7.0400   9.2900  11.5500   90.000   97.870   90.000
ZERR   16.000   0.0014   0.0019   0.0023    0.000    0.030    0.000
LATT -1
SYMM 1/2+X, -Y, 1/2+Z
SFAC C N O
UNIT 16 16 16
L.S. 10
BOND
LIST 6
FMAP 2
PLAN 20
O001  3  0.35155  0.25860  0.31219 11.00000  0.00850  10.08
O002  3  0.95321  0.30596  0.66415 11.00000  0.03734   9.27
N003  2  1.03466  0.58423  0.45272 11.00000  0.03060   7.01
O004  3  0.16426 -0.16756  0.72998 11.00000  0.04586   6.97
N005  2  1.06053  0.48686  0.54413 11.00000  0.02502   6.83
N006  2  0.71964  0.48570  0.39234 11.00000  0.03299   6.77
C007  1  0.17332  0.26756  0.28425 11.00000  0.02485   6.44
C008  1  0.25114  0.10802  0.51064 11.00000  0.01988   6.42
C009  1  0.08333  0.10272  0.44245 11.00000  0.02601   6.38
C00A  1  0.87398  0.58901  0.36954 11.00000  0.02995   6.35
C00B  1  0.90582  0.15788  0.82212 11.00000  0.02795   5.78
C00C  1  0.90802  0.38821  0.56566 11.00000  0.02510   5.77
C00D  1  0.28004  0.01482  0.61211 11.00000  0.03073   5.61
C00E  1  0.83672  0.68042  0.28404 11.00000  0.01691   5.58
C00F  1  0.82256  0.23908  0.72330 11.00000  0.02763   5.57
C00G  1  0.09085  0.35944  0.17788 11.00000  0.02494   5.45
C00H  1  0.13801 -0.07432  0.63229 11.00000  0.01959   5.35
C00I  1  0.73147  0.39118  0.47971 11.00000  0.02898   5.11
C00J  1 -0.06053  0.01346  0.46326 11.00000  0.04478   4.66
C00K  1 -0.04498 -0.07401  0.56406 11.00000  0.03455   4.47
C00L  1  0.06036  0.20383  0.34351 11.00000  0.02587   3.61
HKLF 4
END
