TITL 2_expF_1_4_expS_1_2_2_a.res in P2(1)/n
REM Old TITL 1 in P2/n
REM SHELXT solution in P2(1)/n: R1 0.378, Rweak 0.011, Alpha 0.026
REM <I/s>   1.516 for  106 systematic absences,  Orientation as input
REM Formula found by SHELXT:  C9 N O

CELL  0.71073   7.0400   9.2900  11.5500   90.000   97.870   90.000
ZERR   16.000   0.0014   0.0019   0.0023    0.000    0.030    0.000
LATT  1
SYMM 1/2-X, 1/2+Y, 1/2-Z
SFAC C N O
UNIT 16 16 16
L.S. 10
BOND
LIST 6
FMAP 2
PLAN 20
N001  2  0.66204  0.92517  0.72131 11.00000  0.05713   6.69
C002  1  0.55411  0.55154  0.34087 11.00000  0.05396   6.28
C003  1  0.78311  0.73634  0.60850 11.00000  0.06399   6.20
C004  1  0.45671  0.82911  0.55518 11.00000  0.06501   6.18
C005  1  0.58655  0.64209  0.43660 11.00000  0.05559   6.12
C006  1  0.67630  0.48817  0.27957 11.00000  0.05980   5.86
C007  1  0.76328  0.64213  0.51556 11.00000  0.05582   5.83
C008  1  0.63277  0.83201  0.63125 11.00000  0.05877   5.79
O009  3  0.85592  0.49620  0.30846 11.00000  0.07190   5.76
C00A  1  0.44153  0.73407  0.45955 11.00000  0.06398   5.75
C00B  1  0.58865  0.40131  0.17529 11.00000  0.06637   5.26
HKLF 4
END
