TITL 2_expF_0_7_expS_1_4_2_b.res in Pn
REM Old TITL 1 in P2/n
REM SHELXT solution in Pn: R1 0.236, Rweak 0.054, Alpha 0.016
REM <I/s>   1.114 for  100 systematic absences,  Orientation as input
REM Formula found by SHELXT:  C12 N2 O7

CELL  0.71073   7.0400   9.2900  11.5500   90.000   97.870   90.000
ZERR   16.000   0.0014   0.0019   0.0023    0.000    0.030    0.000
LATT -1
SYMM 1/2+X, -Y, 1/2+Z
SFAC C N O
UNIT 16 16 16
L.S. 10
BOND
LIST 6
FMAP 2
PLAN 20
N001  2  0.91907  0.60873  0.56448 11.00000  0.01833  10.46
N002  2  0.13432  1.08035  0.63111 11.00000  0.00568  10.05
O003  3  0.95477  0.70057  0.66464 11.00000  0.03032   8.68
O004  3  0.72131  0.50889  0.38720 11.00000  0.03520   8.57
O005  3  0.35248  0.74557  0.30865 11.00000  0.03328   8.46
O006  3  0.84647  0.32244  0.27950 11.00000  0.03099   8.12
C007  1  0.82166  0.75927  0.72803 11.00000  0.01952   8.00
O008  3  1.04398  0.41379  0.45099 11.00000  0.04110   7.68
C009  1  1.05886  0.50918  0.54111 11.00000  0.02575   6.23
C00A  1  0.74121  0.61558  0.47872 11.00000  0.02523   6.17
C00B  1  0.90833  0.85552  0.82278 11.00000  0.02457   6.16
C00C  1  0.08873  0.65324  0.17722 11.00000  0.03122   6.03
C00D  1 -0.05886  0.98190  0.46006 11.00000  0.02792   5.78
C00E  1  0.26113  0.89886  0.51080 11.00000  0.02134   5.69
O00F  3  0.64973  0.75868  0.69105 11.00000  0.03990   5.54
O00G  3  0.17678  1.16710  0.72500 11.00000  0.04399   5.37
C00H  1  0.06129  0.80226  0.34655 11.00000  0.02138   5.14
C00I  1  0.17778  0.73330  0.28780 11.00000  0.02343   5.13
C00J  1 -0.03667  1.06980  0.56178 11.00000  0.03793   4.81
C00K  1  0.28620  0.98134  0.60525 11.00000  0.03061   4.73
C00L  1  0.09193  0.89953  0.44073 11.00000  0.03772   3.34
HKLF 4
END
