TITL 2_expF_1_2_expS_0_5_2_a.res in Pn
REM Old TITL 1 in P2/n
REM SHELXT solution in Pn: R1 0.257, Rweak 0.268, Alpha 0.177
REM <I/s>   0.923 for  100 systematic absences,  Orientation as input
REM Formula found by SHELXT:  C7 N4 O7

CELL  0.71073   7.0400   9.2900  11.5500   90.000   97.870   90.000
ZERR   16.000   0.0014   0.0019   0.0023    0.000    0.030    0.000
LATT -1
SYMM 1/2+X, -Y, 1/2+Z
SFAC C N O
UNIT 16 16 16
L.S. 10
BOND
LIST 6
FMAP 2
PLAN 20
O001  3  0.24643  0.60585  0.47997 11.00000  0.00010  10.68
O002  3  0.37213  0.42177  0.36662 11.00000  0.00148   9.95
O003  3  0.79044  0.98594  0.60702 11.00000  0.00010   9.28
O004  3  0.14910  0.74806  0.68055 11.00000  0.01448   9.03
N005  2  0.32117  0.76010  0.72047 11.00000  0.00904   8.01
O006  3  0.45905  1.07858  0.55150 11.00000  0.00292   7.79
O007  3  0.67917  1.16517  0.72049 11.00000  0.02384   7.69
N008  2  0.55164  0.79951  0.33644 11.00000  0.00461   7.47
N009  2  0.44067  0.69533  0.65722 11.00000  0.01734   7.38
N00A  2  0.44442  0.99404  0.45508 11.00000  0.01950   6.52
C00B  1  0.40119  0.84626  0.82291 11.00000  0.00928   6.45
C00C  1  0.41343  0.60948  0.55537 11.00000  0.00791   6.22
C00D  1  0.68121  0.72952  0.28285 11.00000  0.00784   5.75
C00E  1  0.58659  0.64414  0.17709 11.00000  0.00640   5.52
C00F  1  0.59000  0.89123  0.43069 11.00000  0.01272   5.51
C00G  1  0.34246  0.31302  0.27558 11.00000  0.00010   5.39
O00H  3  0.85090  0.73653  0.30251 11.00000  0.01264   5.29
C00I  1  0.55869  0.51624  0.53394 11.00000  0.01271   5.18
HKLF 4
END
