TITL 2_expF_0_7_expS_0_7_2_a.res in Pn
REM Old TITL 1 in P2/n
REM SHELXT solution in Pn: R1 0.281, Rweak 0.401, Alpha 0.190
REM <I/s>   0.892 for   97 systematic absences,  Orientation as input
REM Formula found by SHELXT:  C8 N2 O7

CELL  0.71073   7.0400   9.2900  11.5500   90.000   97.870   90.000
ZERR   16.000   0.0014   0.0019   0.0023    0.000    0.030    0.000
LATT -1
SYMM 1/2+X, -Y, 1/2+Z
SFAC C N O
UNIT 16 16 16
L.S. 10
BOND
LIST 6
FMAP 2
PLAN 20
O001  3  0.59257  0.88708  0.44177 11.00000  0.00010  12.16
O002  3  0.15506  0.75597  0.69587 11.00000  0.00010   8.98
O003  3  0.37849  0.41435  0.36722 11.00000  0.00168   8.03
O004  3  0.55807  0.51354  0.53802 11.00000  0.00010   7.33
N005  2  0.33372  0.30356  0.28235 11.00000  0.01850   7.19
C006  1  0.69477  0.73943  0.27433 11.00000  0.00010   6.77
N007  2  0.61219  0.64850  0.17836 11.00000  0.01017   6.61
O008  3  0.44619  0.69415  0.65531 11.00000  0.00666   6.43
C009  1  0.46579  1.07179  0.55659 11.00000  0.00390   5.83
C00A  1  0.77591  0.97839  0.59656 11.00000  0.04109   5.48
C00B  1  0.34511  0.76520  0.71543 11.00000  0.00467   5.27
C00C  1  0.22545  0.51476  0.38581 11.00000  0.00010   5.17
C00D  1  0.54797  0.79705  0.33055 11.00000  0.00886   4.91
O00E  3  0.23735  0.60302  0.47857 11.00000  0.00010   4.38
C00F  1  0.42698  0.85286  0.82164 11.00000  0.00286   4.18
C00G  1  0.67454  1.16802  0.72668 11.00000  0.00010   3.60
O00H  3  0.84494  0.73910  0.31978 11.00000  0.02346   3.16
HKLF 4
END
