TITL 2_expF_0_9_expS_1_3_2_a.res in P2(1)/n
REM Old TITL 1 in P2/n
REM SHELXT solution in P2(1)/n: R1 0.273, Rweak 0.032, Alpha 0.092
REM <I/s>   1.354 for  106 systematic absences,  Orientation as input
REM Formula found by SHELXT:  C9 N O

CELL  0.71073   7.0400   9.2900  11.5500   90.000   97.870   90.000
ZERR   16.000   0.0014   0.0019   0.0023    0.000    0.030    0.000
LATT  1
SYMM 1/2-X, 1/2+Y, 1/2-Z
SFAC C N O
UNIT 16 16 16
L.S. 10
BOND
LIST 6
FMAP 2
PLAN 20
N001  2  0.44831  0.55224  0.66046 11.00000  0.03975   6.52
C002  1  0.33622  0.92279  0.27807 11.00000  0.02561   6.36
O003  3  0.15061  0.49341  0.69195 11.00000  0.04976   6.16
C004  1  0.32114  0.48762  0.72131 11.00000  0.03164   6.09
C005  1  0.21794  0.73734  0.39040 11.00000  0.03514   6.01
C006  1  0.41191  0.64309  0.56173 11.00000  0.03177   5.99
C007  1  0.36687  0.83057  0.36980 11.00000  0.03541   5.86
C008  1  0.53677  0.82889  0.44455 11.00000  0.03802   5.81
C009  1  0.23981  0.64301  0.48547 11.00000  0.03538   5.72
C00A  1  0.56081  0.73431  0.54049 11.00000  0.03683   5.56
C00B  1  0.40949  0.39873  0.82322 11.00000  0.03725   5.44
HKLF 4
END
