TITL 2_expF_1_3_expS_1_1_2_a.res in P2(1)/n
REM Old TITL 1 in P2/n
REM SHELXT solution in P2(1)/n: R1 0.319, Rweak 0.015, Alpha 0.044
REM <I/s>   1.275 for  106 systematic absences,  Orientation as input
REM Formula found by SHELXT:  C9 N O

CELL  0.71073   7.0400   9.2900  11.5500   90.000   97.870   90.000
ZERR   16.000   0.0014   0.0019   0.0023    0.000    0.030    0.000
LATT  1
SYMM 1/2-X, 1/2+Y, 1/2-Z
SFAC C N O
UNIT 16 16 16
L.S. 10
BOND
LIST 6
FMAP 2
PLAN 20
N001  2  0.65918  0.92317  0.72194 11.00000  0.04693   6.50
C002  1  0.77615  0.73789  0.60790 11.00000  0.05138   6.25
C003  1  0.55270  0.55333  0.34037 11.00000  0.04587   6.15
C004  1  0.45687  0.82910  0.55535 11.00000  0.05422   6.14
C005  1  0.44009  0.73558  0.46020 11.00000  0.05155   5.97
C006  1  0.76064  0.64383  0.51426 11.00000  0.04756   5.95
O007  3  0.85372  0.49692  0.30814 11.00000  0.06768   5.85
C008  1  0.58791  0.64211  0.43810 11.00000  0.04502   5.79
C009  1  0.67580  0.48567  0.27874 11.00000  0.05145   5.75
C00A  1  0.63659  0.83286  0.63060 11.00000  0.04818   5.69
C00B  1  0.59053  0.40090  0.17672 11.00000  0.05934   5.22
HKLF 4
END
