TITL 2_expF_0_7_expS_0_5_2_a.res in Pn
REM Old TITL 1 in P2/n
REM SHELXT solution in Pn: R1 0.322, Rweak 0.617, Alpha 0.260
REM <I/s>   0.867 for   97 systematic absences,  Orientation as input
REM Formula found by SHELXT:  C10 O4

CELL  0.71073   7.0400   9.2900  11.5500   90.000   97.870   90.000
ZERR   16.000   0.0014   0.0019   0.0023    0.000    0.030    0.000
LATT -1
SYMM 1/2+X, -Y, 1/2+Z
SFAC C N O
UNIT 16 16 16
L.S. 10
BOND
LIST 6
FMAP 2
PLAN 20
C001  1  0.57862  0.10480  0.49072 11.00000  0.00010   9.78
O002  3  0.59793  0.34910  0.22598 11.00000  0.00010   9.65
C003  1  0.31838  0.22590  0.77402 11.00000  0.00010   7.87
C004  1  0.37346  0.58982  0.42966 11.00000  0.00010   6.90
O005  3  0.14518  0.23983  0.74403 11.00000  0.01020   6.28
C006  1  0.33283  0.67657  0.33271 11.00000  0.00010   6.02
C007  1  0.85482  0.26102  0.36864 11.00000  0.00010   5.90
C008  1  0.44923  0.30099  0.71944 11.00000  0.00010   5.87
C009  1  0.57060  0.48369  0.60126 11.00000  0.00010   5.86
O00A  3  0.51730  0.18033  0.37262 11.00000  0.19800   5.48
C00B  1  0.76474  0.10799  0.56524 11.00000  0.00010   5.47
C00C  1  0.78260  0.00602  0.66866 11.00000  0.00010   5.32
C00D  1  0.46669 -0.07681  0.60638 11.00000  0.00425   5.02
O00E  3  0.53673  0.50269  0.43148 11.00000  0.22983   3.12
HKLF 4
END
