TITL 2_expF_0_5_expS_1_1_2_a.res in Pn
REM Old TITL 1 in P2/n
REM SHELXT solution in Pn: R1 0.274, Rweak 0.323, Alpha 0.157
REM <I/s>   0.904 for  100 systematic absences,  Orientation as input
REM Formula found by SHELXT:  C6 N4 O7

CELL  0.71073   7.0400   9.2900  11.5500   90.000   97.870   90.000
ZERR   16.000   0.0014   0.0019   0.0023    0.000    0.030    0.000
LATT -1
SYMM 1/2+X, -Y, 1/2+Z
SFAC C N O
UNIT 16 16 16
L.S. 10
BOND
LIST 6
FMAP 2
PLAN 20
O001  3  0.34146  0.67465  0.28849 11.00000  0.00010  10.54
N002  2  0.36145  0.58316  0.37849 11.00000  0.00010   9.45
O003  3  0.58785  0.10894  0.44915 11.00000  0.00010   9.27
O004  3  0.55407  0.19415  0.34029 11.00000  0.02321   8.34
O005  3  0.84953  0.26137  0.32132 11.00000  0.01201   8.32
N006  2  0.33245  0.22456  0.73991 11.00000  0.03390   8.20
O007  3  0.55951  0.48490  0.55080 11.00000  0.00456   7.56
N008  2  0.78868  0.02480  0.62804 11.00000  0.02669   6.99
N009  2  0.25006  0.39472  0.49984 11.00000  0.00324   6.89
C00A  1  0.44092 -0.07676  0.56299 11.00000  0.00226   6.05
C00B  1  0.40079  0.15380  0.82199 11.00000  0.00306   5.82
C00C  1  0.57960  0.35092  0.17801 11.00000  0.00010   5.76
C00D  1  0.15047  0.25015  0.70164 11.00000  0.00010   5.26
C00E  1  0.45930  0.29505  0.66346 11.00000  0.01029   5.17
O00F  3  0.52756  0.59635  0.45806 11.00000  0.05676   5.01
O00G  3  0.21567  0.49421  0.39698 11.00000  0.03106   4.65
C00H  1  0.68058  0.26289  0.29426 11.00000  0.00082   4.57
HKLF 4
END
