TITL 2_expF_1_3_expS_1_2_2_a.res in P2(1)/n
REM Old TITL 1 in P2/n
REM SHELXT solution in P2(1)/n: R1 0.355, Rweak 0.012, Alpha 0.035
REM <I/s>   1.595 for  106 systematic absences,  Orientation as input
REM Formula found by SHELXT:  C9 N O

CELL  0.71073   7.0400   9.2900  11.5500   90.000   97.870   90.000
ZERR   16.000   0.0014   0.0019   0.0023    0.000    0.030    0.000
LATT  1
SYMM 1/2-X, 1/2+Y, 1/2-Z
SFAC C N O
UNIT 16 16 16
L.S. 10
BOND
LIST 6
FMAP 2
PLAN 20
N001  2  0.34152  0.07658  0.27854 11.00000  0.05279   6.62
C002  1  0.22460  0.26315  0.39244 11.00000  0.05736   6.31
C003  1  0.54283  0.17080  0.44339 11.00000  0.06232   6.25
C004  1  0.44782  0.44543  0.66076 11.00000  0.05395   6.20
C005  1  0.55853  0.26389  0.53908 11.00000  0.05843   6.13
C006  1  0.23906  0.35653  0.48554 11.00000  0.05264   6.02
O007  3  0.14489  0.50195  0.69238 11.00000  0.07821   5.78
C008  1  0.41341  0.35809  0.56235 11.00000  0.05038   5.76
C009  1  0.32424  0.51350  0.72139 11.00000  0.06063   5.67
C00A  1  0.36351  0.16768  0.36888 11.00000  0.05300   5.66
C00B  1  0.40915  0.59801  0.82272 11.00000  0.06773   5.12
HKLF 4
END
