TITL 2_expF_0_5_expS_0_6_2_b.res in Pm
REM Old TITL 1 in P2/n
REM SHELXT solution in Pm: R1 0.151, Rweak 0.512, Alpha 0.051
REM <I/s>   0.000 for    0 systematic absences,  Orientation as input
REM Formula found by SHELXT:  C43 N12 O4 I

CELL  0.71073   7.0400   9.2900  11.5500   90.000   97.870   90.000
ZERR   16.000   0.0014   0.0019   0.0023    0.000    0.030    0.000
LATT -1
SYMM X, -Y, Z
SFAC C N O I
UNIT 16 16 16 0
L.S. 10
BOND
LIST 6
FMAP 2
PLAN 20
I001  4  0.64919  0.50000  1.02380 10.50000  0.00010 133.24
C002  1  0.43391  0.00000 -0.04336 10.50000  0.00010  13.92
C003  1  0.15300  1.00000  0.52156 10.50000  0.02933  11.50
N004  2  0.76104  0.31516  0.90450 11.00000  0.02507  10.08
N005  2  0.13847  0.81687  0.52994 11.00000  0.05733   8.70
C006  1  0.14075  0.70631  0.52938 11.00000  0.04373   8.36
O007  3  0.27695  0.50000  0.40308 10.50000  0.11814   8.28
N008  2  0.17196  0.50000  0.61529 10.50000  0.03926   8.16
C009  1  0.16739  0.60272  0.52693 11.00000  0.05116   7.80
N00A  2  0.15591  0.50000  0.51790 10.50000  0.06245   7.74
N00B  2  0.01324  0.50000  0.18764 10.50000  0.10958   7.10
N00C  2  0.88200  0.06947  0.07843 11.00000  0.09832   7.08
C00D  1  0.21663  0.39984  0.27321 11.00000  0.13409   6.14
O00E  3  0.59738  0.00000 -0.06004 10.50000  0.09816   5.81
C00F  1  0.92626  0.00000  0.19476 10.50000  0.14169   5.75
C00G  1  0.35080  0.71415  0.67725 11.00000  0.13997   5.70
C00H  1  0.88818  0.31654  0.28397 11.00000  0.05826   5.52
C00I  1 -0.12413  0.50000  0.64149 10.50000  0.07265   5.47
C00J  1  0.73621  0.16641  0.19848 11.00000  0.06990   5.38
N00K  2  0.48797  0.42510  1.21294 11.00000  0.36844   5.28
C00L  1  0.44456  0.44895  1.06671 11.00000  0.24297   5.25
C00M  1  1.12413  0.00000  0.26899 10.50000  0.16503   5.24
C00N  1  0.45580  0.40327  0.85135 11.00000  0.03397   5.13
C00O  1  0.56317  0.77061  0.73363 11.00000  0.07073   5.06
C00P  1  0.73583  0.26824  0.11605 11.00000  0.12413   4.97
N00Q  2  0.33984  1.00000  0.56718 10.50000  0.08184   4.97
O00R  3  0.31977  0.24914  0.10112 11.00000  0.25001   4.92
C00S  1  0.17732  0.38053  0.19210 11.00000  0.22813   4.91
C00T  1  0.13539  0.15388 -0.04880 11.00000  0.29038   4.87
C00U  1  0.90150  0.16285  0.40711 11.00000  0.30067   4.87
C00V  1 -0.07054  0.62855  0.46674 11.00000  0.07640   4.63
C00W  1  0.52764  0.19605  0.21925 11.00000  0.11767   4.46
C00X  1  0.36452  0.50000  0.66931 10.50000  0.11446   4.35
C00Y  1 -0.02724  0.38141  0.08604 11.00000  0.09876   4.25
C00Z  1  0.60018  0.40121  0.92732 11.00000  0.04052   4.07
C010  1  0.45213  0.50000  0.75850 10.50000  0.21946   4.04
C011  1  0.20805  0.09691 -0.21294 11.00000  0.27499   3.93
HKLF 4
END
