TITL 2_expF_0_6_expS_1_3_2_a.res in Pn
REM Old TITL 1 in P2/n
REM SHELXT solution in Pn: R1 0.238, Rweak 0.140, Alpha 0.074
REM <I/s>   0.989 for  100 systematic absences,  Orientation as input
REM Formula found by SHELXT:  C13 N2 O5

CELL  0.71073   7.0400   9.2900  11.5500   90.000   97.870   90.000
ZERR   16.000   0.0014   0.0019   0.0023    0.000    0.030    0.000
LATT -1
SYMM 1/2+X, -Y, 1/2+Z
SFAC C N O
UNIT 16 16 16
L.S. 10
BOND
LIST 6
FMAP 2
PLAN 20
O001  3  0.95052  0.20222  0.65528 11.00000  0.00796  10.69
O002  3  0.16930  0.67150  0.71674 11.00000  0.00010   9.77
O003  3 -0.02756  0.57393  0.55066 11.00000  0.02594   7.94
C004  1  0.17616  0.24272  0.27881 11.00000  0.02053   7.09
N005  2  0.27883  0.48531  0.60500 11.00000  0.01742   6.88
C006  1  0.14046  0.57753  0.62167 11.00000  0.01614   6.74
N007  2  0.08633  0.40048  0.43121 11.00000  0.02205   6.71
O008  3  0.65913  0.25535  0.68601 11.00000  0.02699   6.64
O009  3  0.36042  0.24669  0.30466 11.00000  0.02599   6.39
C00A  1  0.26121  0.39398  0.50493 11.00000  0.00636   6.23
C00B  1  0.92037  0.34861  0.82290 11.00000  0.01568   6.14
C00C  1  1.06102  0.01650  0.53076 11.00000  0.02118   6.13
C00D  1  0.73733  0.10467  0.47178 11.00000  0.03521   5.94
C00E  1  0.71246  0.01198  0.38241 11.00000  0.03637   5.42
C00F  1  0.90919  0.11351  0.55642 11.00000  0.02000   5.37
C00G  1  0.82473  0.26625  0.71742 11.00000  0.01557   5.22
C00H  1  0.87975 -0.08278  0.36407 11.00000  0.02232   4.77
C00I  1 -0.06102  0.49020  0.45179 11.00000  0.02092   4.76
C00J  1  0.10173  0.14230  0.17710 11.00000  0.02265   4.37
C00K  1  1.06081 -0.08640  0.44294 11.00000  0.04015   4.13
HKLF 4
END
