TITL 2_expF_1_1_expS_1_4_2_c.res in P2(1)
REM Old TITL 1 in P2/n
REM SHELXT solution in P2(1): R1 0.347, Rweak 0.012, Alpha 0.024
REM <I/s>   1.312 for    6 systematic absences,  Orientation as input
REM Formula found by SHELXT:  C17 N3 O2

CELL  0.71073   7.0400   9.2900  11.5500   90.000   97.870   90.000
ZERR   16.000   0.0014   0.0019   0.0023    0.000    0.030    0.000
LATT -1
SYMM -X, 1/2+Y, -Z
SFAC C N O
UNIT 16 16 16
L.S. 10
BOND
LIST 6
FMAP 2
PLAN 20
N001  2  0.69291  0.29842  0.41114 11.00000  0.05645   6.87
N002  2  0.08789  0.32258  0.52890 11.00000  0.05017   6.72
N003  2  0.28408  0.41665  0.69616 11.00000  0.06833   6.56
C004  1  0.66056  0.38831  0.31360 11.00000  0.04912   6.56
C005  1  0.58806  0.66898  0.02677 11.00000  0.03861   6.36
C006  1  0.47019  0.48613  0.14077 11.00000  0.05651   6.33
O007  3 -0.10193  0.75863  0.94213 11.00000  0.06195   6.02
C008  1  0.57317  0.23029  0.47287 11.00000  0.05067   5.98
C009  1 -0.01239  0.60367  0.73358 11.00000  0.04954   5.96
C00A  1 -0.03247  0.51260  0.63998 11.00000  0.05342   5.95
C00B  1  0.79506  0.57464  0.19223 11.00000  0.05514   5.81
C00C  1  0.61377  0.57701  0.11889 11.00000  0.05529   5.80
C00D  1  0.11824  0.41266  0.62098 11.00000  0.05042   5.74
C00E  1  0.81005  0.47668  0.28813 11.00000  0.05967   5.72
C00F  1  0.19814  0.69468  0.90937 11.00000  0.04858   5.61
O00G  3  0.39573  0.24632  0.44089 11.00000  0.06257   5.61
C00H  1  0.30553  0.50846  0.79127 11.00000  0.05162   5.60
C00I  1  0.66255  0.15168  0.57373 11.00000  0.06418   5.59
C00J  1  0.06905  0.75445  0.96476 11.00000  0.05221   5.50
C00K  1  0.16506  0.60096  0.81247 11.00000  0.04854   5.43
C00L  1  0.48920  0.38981  0.23566 11.00000  0.05237   5.29
C00M  1  0.15854  0.84832  1.07381 11.00000  0.05644   4.68
HKLF 4
END
