TITL 2_expF_1_5_expS_0_7_2_b.res in Pn
REM Old TITL 1 in P2/n
REM SHELXT solution in Pn: R1 0.233, Rweak 0.047, Alpha 0.042
REM <I/s>   1.175 for  100 systematic absences,  Orientation as input
REM Formula found by SHELXT:  C13 N3 O6

CELL  0.71073   7.0400   9.2900  11.5500   90.000   97.870   90.000
ZERR   16.000   0.0014   0.0019   0.0023    0.000    0.030    0.000
LATT -1
SYMM 1/2+X, -Y, 1/2+Z
SFAC C N O
UNIT 16 16 16
L.S. 10
BOND
LIST 6
FMAP 2
PLAN 20
O001  3  0.33850 -0.16971  0.27087 11.00000  0.02106   9.49
N002  2  0.41905  0.10365  0.55795 11.00000  0.02679   8.87
O003  3  0.22827  0.01408  0.38951 11.00000  0.02909   8.53
O004  3  0.85118  0.24280  0.30723 11.00000  0.03828   8.29
O005  3  0.45307  0.48557  0.45398 11.00000  0.05489   7.73
N006  2  0.55489  0.30053  0.33808 11.00000  0.03137   7.34
N007  2  0.54354 -0.07614  0.43876 11.00000  0.03907   7.14
C008  1  0.32810  0.25582  0.72058 11.00000  0.02405   6.54
C009  1  0.68561  0.23005  0.27863 11.00000  0.03351   6.38
C00A  1  0.64582  0.58471  0.62539 11.00000  0.03320   6.34
C00B  1  0.25544  0.10650  0.48669 11.00000  0.03081   6.33
C00C  1  0.45056  0.19876  0.65806 11.00000  0.02417   6.16
C00D  1  0.42126  0.34242  0.82365 11.00000  0.03256   5.72
C00E  1  0.38192 -0.07844  0.36670 11.00000  0.02642   5.69
C00F  1  0.60328  0.13860  0.17635 11.00000  0.03315   5.59
C00G  1  0.77740  0.39285  0.51680 11.00000  0.02545   5.52
C00H  1  0.46111  0.58344  0.54809 11.00000  0.03161   5.33
C00I  1  0.79216  0.48830  0.61282 11.00000  0.06687   4.75
O00J  3  0.14882  0.25415  0.69000 11.00000  0.04207   4.75
O00K  3  0.65808  0.68476  0.70943 11.00000  0.07001   4.10
C00L  1  0.57243  0.01256  0.53642 11.00000  0.02946   4.09
C00M  1  0.59138  0.38873  0.43338 11.00000  0.04287   3.72
HKLF 4
END
