TITL 2_expF_0_8_expS_0_5_2_a.res in Pn
REM Old TITL 1 in P2/n
REM SHELXT solution in Pn: R1 0.292, Rweak 0.516, Alpha 0.296
REM <I/s>   0.872 for   97 systematic absences,  Orientation as input
REM Formula found by SHELXT:  C12 N2 O7

CELL  0.71073   7.0400   9.2900  11.5500   90.000   97.870   90.000
ZERR   16.000   0.0014   0.0019   0.0023    0.000    0.030    0.000
LATT -1
SYMM 1/2+X, -Y, 1/2+Z
SFAC C N O
UNIT 16 16 16
L.S. 10
BOND
LIST 6
FMAP 2
PLAN 20
O001  3  0.35056  0.73712  0.30306 11.00000  0.00010  11.66
O002  3  0.74079  0.51179  0.39509 11.00000  0.00195  11.10
O003  3 -0.05019  0.98328  0.46161 11.00000  0.00010   9.62
O004  3  0.84006  0.32900  0.27377 11.00000  0.00010   9.14
O005  3  0.93124  0.58946  0.55828 11.00000  0.01498   8.45
O006  3  0.97328  0.70380  0.66296 11.00000  0.00010   8.41
N007  2  0.18018  0.73179  0.28983 11.00000  0.00010   7.82
C008  1  0.73965  0.61005  0.48243 11.00000  0.00613   6.80
N009  2  0.13341  1.08584  0.62646 11.00000  0.00010   6.62
C00A  1  0.90591  0.85678  0.82034 11.00000  0.00816   6.10
C00B  1 -0.04699  1.04664  0.56820 11.00000  0.00463   5.81
C00C  1  0.09059  0.79579  0.34544 11.00000  0.00010   5.54
C00D  1  0.09358  0.65196  0.17966 11.00000  0.00010   5.02
C00E  1  1.05019  0.40656  0.46016 11.00000  0.00010   4.81
C00F  1  0.82150  0.76248  0.72757 11.00000  0.00010   4.60
C00G  1  0.26301  0.88893  0.50593 11.00000  0.00236   4.48
C00H  1  0.10455  0.87699  0.42835 11.00000  0.00052   4.36
C00I  1  0.57357  0.72267  0.43153 11.00000  0.10496   4.23
O00J  3  0.64756  0.75847  0.68399 11.00000  0.02941   3.89
C00K  1  0.30550  0.99813  0.62846 11.00000  0.04336   3.81
C00L  1  0.67271  0.59260  0.21927 11.00000  0.10325   3.78
HKLF 4
END
