TITL 2_expF_0_6_expS_0_7_2_a.res in Pn
REM Old TITL 1 in P2/n
REM SHELXT solution in Pn: R1 0.334, Rweak 0.577, Alpha 0.191
REM <I/s>   0.872 for   97 systematic absences,  Orientation as input
REM Formula found by SHELXT:  C16 N7 O14 Br2

CELL  0.71073   7.0400   9.2900  11.5500   90.000   97.870   90.000
ZERR   16.000   0.0014   0.0019   0.0023    0.000    0.030    0.000
LATT -1
SYMM 1/2+X, -Y, 1/2+Z
SFAC C N O BR
UNIT 16 16 16 0
L.S. 10
BOND
LIST 6
FMAP 2
PLAN 20
BR01  4  0.02900  0.61292  0.41321 11.00000  0.03386  27.35
BR02  4  0.25932  0.07514  0.48676 11.00000  0.03215  23.90
O003  3  0.97126  0.24908  0.66102 11.00000  0.00010  21.36
O004  3  1.33712  0.47881  0.74335 11.00000  0.00010  21.08
O005  3  0.05646  0.69289  0.51464 11.00000  0.00010  20.51
N006  2  0.17807  0.51566  0.38899 11.00000  0.00010  18.98
O007  3  0.28349  0.16740  0.57427 11.00000  0.00010  18.17
N008  2  0.79291  0.25991  0.63481 11.00000  0.00010  17.87
O009  3  0.02668  0.85194  0.66938 11.00000  0.00010  17.11
O00A  3  0.67176  0.20194  0.68936 11.00000  0.00010  15.03
O00B  3  0.36866  0.89597  0.37008 11.00000  0.00010  14.03
N00C  2 -0.04760  0.74880  0.57834 11.00000  0.00010  11.93
O00D  3 -0.22581  0.74959  0.53616 11.00000  0.00010  11.33
N00E  2  0.20095  0.41910  0.29418 11.00000  0.00010  11.30
O00F  3  0.71357  0.35969  0.53883 11.00000  0.00010   9.83
O00G  3 -0.04139  0.31239  0.12469 11.00000  0.00010   9.67
O00H  3  1.38739  0.42854  0.64000 11.00000  0.05137   8.46
O00I  3  0.17385  0.64796  0.30062 11.00000  0.03423   7.57
N00J  2  0.08078  0.08404  0.38294 11.00000  0.00010   7.27
O00K  3  0.41938  1.14790  0.82091 11.00000  0.00010   6.79
C00L  1  0.28580  0.90902  0.71153 11.00000  0.00635   6.66
N00M  2 -0.15133  0.91592  0.56798 11.00000  0.04148   6.61
N00N  2  0.19963  0.77545  0.36390 11.00000  0.01798   6.56
C00O  1  0.07367  0.31769  0.36931 11.00000  0.02987   6.38
C00P  1  0.69942  0.51688  0.49952 11.00000  0.00010   6.37
C00Q  1  0.31200  1.11734  0.87531 11.00000  0.00010   6.18
C00R  1  0.48048  0.58814  0.47310 11.00000  0.00834   6.05
C00S  1  0.38533  0.68151  0.43685 11.00000  0.00010   6.03
C00T  1  1.13469  0.28815  0.77972 11.00000  0.00010   5.95
C00U  1  0.06155  0.38157  0.24870 11.00000  0.00010   5.89
C00V  1  1.20495  0.41727  0.67019 11.00000  0.00010   5.77
O00W  3  0.24315  0.96467  0.77553 11.00000  0.01859   5.76
C00X  1 -0.38739  1.02285  0.44814 11.00000  0.00010   5.73
C00Y  1 -0.33394  1.17539  0.48846 11.00000  0.00010   5.70
C00Z  1 -0.12336  0.32887  0.41944 11.00000  0.01321   5.69
C010  1 -0.34301  1.03648  0.54526 11.00000  0.01487   5.64
C011  1  0.38122  0.23238  0.33562 11.00000  0.00704   5.60
C012  1 -0.05045  0.19347  0.35706 11.00000  0.00010   5.54
C013  1 -0.05627  0.29214  0.49734 11.00000  0.00010   5.50
HKLF 4
END
