TITL 2_expF_1_3_expS_0_7_2_b.res in Pn
REM Old TITL 1 in P2/n
REM SHELXT solution in Pn: R1 0.233, Rweak 0.062, Alpha 0.062
REM <I/s>   1.076 for  100 systematic absences,  Orientation as input
REM Formula found by SHELXT:  C10 N2 O8

CELL  0.71073   7.0400   9.2900  11.5500   90.000   97.870   90.000
ZERR   16.000   0.0014   0.0019   0.0023    0.000    0.030    0.000
LATT -1
SYMM 1/2+X, -Y, 1/2+Z
SFAC C N O
UNIT 16 16 16
L.S. 10
BOND
LIST 6
FMAP 2
PLAN 20
O001  3  0.76199  0.89253  0.56796 11.00000  0.00885   9.25
O002  3  0.54507  0.79824  0.39034 11.00000  0.02602   9.20
O003  3  0.78503  0.98586  0.65937 11.00000  0.04276   8.94
O004  3  0.59085  0.65057  0.22653 11.00000  0.01027   8.19
O005  3  0.14880  0.75939  0.74153 11.00000  0.02833   7.89
O006  3  0.65765  1.17105  0.77347 11.00000  0.02837   7.50
N007  2  0.31815  0.76781  0.77064 11.00000  0.02477   7.22
N008  2  0.54238  0.41798  0.49971 11.00000  0.02767   6.83
C009  1  0.44241  0.98214  0.51000 11.00000  0.01449   6.29
C00A  1  0.63857  1.07327  0.68278 11.00000  0.01153   6.29
C00B  1  0.58362  0.88983  0.48623 11.00000  0.02191   6.15
C00C  1  0.56217  0.50795  0.59029 11.00000  0.02250   5.99
C00D  1  0.37653  0.41026  0.42377 11.00000  0.02379   5.98
C00E  1  0.41012  0.60376  0.60906 11.00000  0.01915   5.93
O00F  3  0.85120  0.74477  0.35891 11.00000  0.02736   5.66
C00G  1  0.33009  0.32282  0.32970 11.00000  0.01803   5.55
C00H  1  0.67752  0.73973  0.32920 11.00000  0.02124   5.44
C00I  1  0.46045  1.07528  0.60882 11.00000  0.02608   5.44
C00J  1  0.43853  0.69544  0.70961 11.00000  0.02081   4.46
O00K  3  0.22707  0.51409  0.44028 11.00000  0.04205   3.80
HKLF 4
END
