TITL 2_expF_1_1_expS_0_9_2_b.res in Pn
REM Old TITL 1 in P2/n
REM SHELXT solution in Pn: R1 0.237, Rweak 0.058, Alpha 0.046
REM <I/s>   1.127 for  100 systematic absences,  Orientation as input
REM Formula found by SHELXT:  C12 N O8

CELL  0.71073   7.0400   9.2900  11.5500   90.000   97.870   90.000
ZERR   16.000   0.0014   0.0019   0.0023    0.000    0.030    0.000
LATT -1
SYMM 1/2+X, -Y, 1/2+Z
SFAC C N O
UNIT 16 16 16
L.S. 10
BOND
LIST 6
FMAP 2
PLAN 20
N001  2  0.08606  0.10553  0.43719 11.00000  0.00137   9.40
O002  3  0.64614  0.24216  0.68761 11.00000  0.03191   8.18
O003  3  1.05346  0.48433  0.54228 11.00000  0.04558   7.87
O004  3 -0.03757 -0.07469  0.55465 11.00000  0.02307   7.79
O005  3  0.27524  0.01198  0.60689 11.00000  0.03500   7.57
O006  3  0.16789 -0.17245  0.72464 11.00000  0.02537   7.44
O007  3  0.94758  0.30741  0.65810 11.00000  0.03782   7.35
C008  1  0.82014  0.23304  0.71622 11.00000  0.02327   6.64
C009  1  0.86363  0.58136  0.36954 11.00000  0.02556   6.59
C00A  1  0.26425  0.10670  0.51228 11.00000  0.02700   5.91
C00B  1  0.05220  0.20315  0.33811 11.00000  0.02007   5.73
C00C  1  0.08622  0.34608  0.17638 11.00000  0.02204   5.70
C00D  1  0.17659  0.25763  0.27587 11.00000  0.02412   5.66
O00E  3  0.84494  0.67854  0.28241 11.00000  0.05014   5.63
C00F  1  0.90324  0.14247  0.82362 11.00000  0.03364   5.45
C00G  1  0.74215  0.39102  0.48125 11.00000  0.02643   5.21
C00H  1  0.70789  0.48571  0.38633 11.00000  0.03309   5.10
C00I  1  0.12880 -0.08095  0.63161 11.00000  0.03141   4.73
O00J  3  0.35000  0.25489  0.30535 11.00000  0.03906   4.46
C00K  1  1.06308  0.59152  0.44712 11.00000  0.07466   3.95
C00L  1 -0.06308  0.00890  0.45959 11.00000  0.02514   3.19
HKLF 4
END
