TITL 2_expF_0_8_expS_1_2_2_b.res in Pn
REM Old TITL 1 in P2/n
REM SHELXT solution in Pn: R1 0.222, Rweak 0.062, Alpha 0.052
REM <I/s>   1.106 for  100 systematic absences,  Orientation as input
REM Formula found by SHELXT:  C12 N5 O6

CELL  0.71073   7.0400   9.2900  11.5500   90.000   97.870   90.000
ZERR   16.000   0.0014   0.0019   0.0023    0.000    0.030    0.000
LATT -1
SYMM 1/2+X, -Y, 1/2+Z
SFAC C N O
UNIT 16 16 16
L.S. 10
BOND
LIST 6
FMAP 2
PLAN 20
O001  3  0.28419  0.98622  0.60107 11.00000  0.02406  10.08
O002  3  0.05680  0.79633  0.33250 11.00000  0.02568   9.25
O003  3  0.65660  0.75211  0.68428 11.00000  0.03085   8.92
N004  2  0.09346  0.89004  0.43438 11.00000  0.02094   8.41
O005  3  0.17485  1.16615  0.72047 11.00000  0.02165   7.84
N006  2  1.06043  0.51035  0.53589 11.00000  0.03648   7.48
N007  2 -0.03074  1.07975  0.55001 11.00000  0.03207   7.24
N008  2  0.88086  0.41548  0.36766 11.00000  0.02912   7.23
N009  2  0.10720  0.64405  0.17471 11.00000  0.02508   7.09
C00A  1  0.19259  0.74477  0.26763 11.00000  0.02030   7.03
C00B  1  0.25724  0.89227  0.50952 11.00000  0.02704   6.87
C00C  1  0.83709  0.77238  0.70990 11.00000  0.01850   6.33
C00D  1  0.85065  0.31387  0.27838 11.00000  0.03157   5.80
C00E  1  0.74279  0.60364  0.47970 11.00000  0.02068   5.62
C00F  1  0.14660  1.07710  0.62844 11.00000  0.02465   5.53
C00G  1  1.04972  0.42299  0.43937 11.00000  0.03528   5.39
C00H  1  0.93151  0.84449  0.82529 11.00000  0.03059   5.06
C00I  1  0.91736  0.60271  0.56012 11.00000  0.03484   5.00
O00J  3  0.36003  0.74049  0.30263 11.00000  0.04096   4.91
C00K  1  0.94988  0.69151  0.65242 11.00000  0.03450   4.64
C00L  1 -0.06043  0.98434  0.45296 11.00000  0.02142   4.59
C00M  1  0.71035  0.51341  0.37584 11.00000  0.05533   3.13
O00N  3  0.35289  0.81332  0.49059 11.00000  0.26043   3.03
HKLF 4
END
