TITL 2_expF_0_7_expS_1_3_2_a.res in P2(1)/n
REM Old TITL 1 in P2/n
REM SHELXT solution in P2(1)/n: R1 0.273, Rweak 0.092, Alpha 0.164
REM <I/s>   1.130 for  106 systematic absences,  Orientation as input
REM Formula found by SHELXT:  C9 N O

CELL  0.71073   7.0400   9.2900  11.5500   90.000   97.870   90.000
ZERR   16.000   0.0014   0.0019   0.0023    0.000    0.030    0.000
LATT  1
SYMM 1/2-X, 1/2+Y, 1/2-Z
SFAC C N O
UNIT 16 16 16
L.S. 10
BOND
LIST 6
FMAP 2
PLAN 20
N001  2  0.44856  0.44874  0.66102 11.00000  0.02746   6.52
O002  3  0.14956  0.50628  0.69159 11.00000  0.03453   6.45
C003  1  0.32166  0.51214  0.72137 11.00000  0.02054   6.25
C004  1  0.33500  0.07518  0.27808 11.00000  0.01734   6.04
C005  1  0.41133  0.35744  0.56169 11.00000  0.02225   5.99
C006  1  0.36730  0.17006  0.37011 11.00000  0.02366   5.97
C007  1  0.21940  0.26401  0.38966 11.00000  0.02318   5.93
C008  1  0.24004  0.35734  0.48505 11.00000  0.02322   5.72
C009  1  0.54012  0.17125  0.44520 11.00000  0.02689   5.62
C00A  1  0.40872  0.60079  0.82317 11.00000  0.02411   5.60
C00B  1  0.56107  0.26439  0.54065 11.00000  0.02502   5.50
HKLF 4
END
