TITL 2_expF_1_3_expS_0_6_2_c.res in P2(1)
REM Old TITL 1 in P2/n
REM SHELXT solution in P2(1): R1 0.253, Rweak 0.141, Alpha 0.176
REM <I/s>   1.862 for    6 systematic absences,  Orientation as input
REM Formula found by SHELXT:  C14 N3 O5

CELL  0.71073   7.0400   9.2900  11.5500   90.000   97.870   90.000
ZERR   16.000   0.0014   0.0019   0.0023    0.000    0.030    0.000
LATT -1
SYMM -X, 1/2+Y, -Z
SFAC C N O
UNIT 16 16 16
L.S. 10
BOND
LIST 6
FMAP 2
PLAN 20
O001  3  0.39644  0.25389  0.43906 11.00000  0.01804   8.83
O002  3  0.09065  0.31397  0.53028 11.00000  0.03315   8.56
N003  2  0.16325  0.60038  0.81458 11.00000  0.00811   7.87
O004  3  0.20571  0.70485  0.90759 11.00000  0.02189   7.67
N005  2  0.46915  0.47403  0.13610 11.00000  0.03387   7.23
N006  2  0.11320  0.41459  0.61831 11.00000  0.03054   7.18
C007  1  0.07047  0.76080  0.96169 11.00000  0.01548   7.12
C008  1  0.31956  0.50989  0.79099 11.00000  0.01707   6.25
C009  1  0.66730  0.14923  0.57114 11.00000  0.02993   5.76
C00A  1  0.78748  0.58049  0.20365 11.00000  0.02415   5.71
C00B  1  0.56991  0.23252  0.47906 11.00000  0.01221   5.71
C00C  1 -0.00777  0.58958  0.73717 11.00000  0.02052   5.59
C00D  1  0.29974  0.42241  0.68920 11.00000  0.01850   5.43
C00E  1  0.14907  0.85077  1.07483 11.00000  0.01058   5.37
C00F  1  0.49017  0.38264  0.23378 11.00000  0.00918   5.25
C00G  1  0.80308  0.48284  0.29119 11.00000  0.01971   5.09
C00H  1  0.68877  0.30785  0.41309 11.00000  0.01743   5.01
C00I  1  0.61845  0.57445  0.12163 11.00000  0.01980   4.85
C00J  1 -0.02814  0.50290  0.64177 11.00000  0.01542   4.78
C00K  1  0.66004  0.37994  0.30376 11.00000  0.04842   3.77
O00L  3 -0.09753  0.77255  0.94364 11.00000  0.02831   3.58
O00M  3  0.58237  0.66306  0.02570 11.00000  0.03100   3.51
HKLF 4
END
