TITL 2_expF_0_9_expS_1_1_2_b.res in Pn
REM Old TITL 1 in P2/n
REM SHELXT solution in Pn: R1 0.243, Rweak 0.059, Alpha 0.034
REM <I/s>   1.125 for  100 systematic absences,  Orientation as input
REM Formula found by SHELXT:  C16 N2 O3

CELL  0.71073   7.0400   9.2900  11.5500   90.000   97.870   90.000
ZERR   16.000   0.0014   0.0019   0.0023    0.000    0.030    0.000
LATT -1
SYMM 1/2+X, -Y, 1/2+Z
SFAC C N O
UNIT 16 16 16
L.S. 10
BOND
LIST 6
FMAP 2
PLAN 20
C001  1  0.17046  0.23516  0.28651 11.00000  0.00770   8.90
O002  3  0.94540  0.19982  0.66587 11.00000  0.04329   8.46
O003  3  0.71610  0.01272  0.39719 11.00000  0.03633   7.65
N004  2  0.85944 -0.07112  0.36631 11.00000  0.03575   7.62
O005  3  0.34515  0.24733  0.31803 11.00000  0.04943   6.83
N006  2  0.07885  0.39233  0.44119 11.00000  0.04940   6.59
C007  1  0.73544  0.10870  0.48997 11.00000  0.03020   6.34
C008  1  0.15763  0.67833  0.72355 11.00000  0.03177   6.23
C009  1  1.02695 -0.08384  0.45307 11.00000  0.02796   5.96
C00A  1  1.05962  0.01408  0.54425 11.00000  0.02963   5.92
C00B  1  0.83068 -0.16839  0.27953 11.00000  0.01817   5.55
C00C  1  0.89784  0.35608  0.82359 11.00000  0.02774   5.23
C00D  1 -0.04995  0.57122  0.56595 11.00000  0.04436   5.13
C00E  1  0.07854  0.15467  0.17641 11.00000  0.04148   5.05
C00F  1  0.63984  0.25891  0.69818 11.00000  0.02153   4.96
C00G  1  0.90305  0.10803  0.56393 11.00000  0.02505   4.88
C00H  1  0.25271  0.39676  0.51829 11.00000  0.03483   4.86
C00I  1 -0.05962  0.48496  0.46003 11.00000  0.03804   4.78
C00J  1  0.12676  0.58792  0.62835 11.00000  0.03134   3.93
C00K  1  0.28487  0.48647  0.61853 11.00000  0.05513   3.80
C00L  1  0.04700  0.30284  0.34552 11.00000  0.03316   3.76
HKLF 4
END
