TITL 2_expF_1_1_expS_0_6_2_b.res in P2(1)
REM Old TITL 1 in P2/n
REM SHELXT solution in P2(1): R1 0.274, Rweak 0.236, Alpha 0.266
REM <I/s>   1.626 for    6 systematic absences,  Orientation as input
REM Formula found by SHELXT:  C10 N5 O5

CELL  0.71073   7.0400   9.2900  11.5500   90.000   97.870   90.000
ZERR   16.000   0.0014   0.0019   0.0023    0.000    0.030    0.000
LATT -1
SYMM -X, 1/2+Y, -Z
SFAC C N O
UNIT 16 16 16
L.S. 10
BOND
LIST 6
FMAP 2
PLAN 20
C001  1  0.61582  0.57002  0.11885 11.00000  0.00010   9.56
O002  3  0.29879  0.40729  0.69455 11.00000  0.00858   8.78
O003  3  0.65171  0.14192  0.57258 11.00000  0.00296   8.33
N004  2  0.16884  0.58472  0.80603 11.00000  0.00720   7.63
O005  3  0.40699  0.23392  0.44499 11.00000  0.01334   7.45
O006  3  0.08909  0.30895  0.52086 11.00000  0.02314   7.33
N007  2  0.07868  0.75133  0.97487 11.00000  0.00870   7.22
N008  2  0.19236  0.69110  0.90735 11.00000  0.00874   7.15
N009  2  0.69811  0.29643  0.41282 11.00000  0.01578   7.00
N00A  2  0.48649  0.37160  0.23909 11.00000  0.01915   6.95
C00B  1 -0.11059  0.75549  0.93413 11.00000  0.00010   6.42
C00C  1  0.80843  0.46120  0.29010 11.00000  0.02042   6.20
C00D  1  0.46815  0.46364  0.13972 11.00000  0.00799   6.08
C00E  1  0.55960  0.22325  0.46345 11.00000  0.00971   6.05
C00F  1 -0.03715  0.48863  0.63450 11.00000  0.01513   6.00
O00G  3  0.57870  0.66028  0.03481 11.00000  0.02418   5.71
C00H  1  0.30717  0.49673  0.79097 11.00000  0.00229   5.58
C00I  1 -0.00284  0.58656  0.73094 11.00000  0.00010   5.35
C00J  1  0.64948  0.37246  0.31787 11.00000  0.01438   5.01
C00K  1  0.17094  0.85808  1.07000 11.00000  0.03857   3.69
HKLF 4
END
