TITL 2_expF_1_1_expS_1_2_2_b.res in Pn
REM Old TITL 1 in P2/n
REM SHELXT solution in Pn: R1 0.271, Rweak 0.020, Alpha 0.010
REM <I/s>   1.464 for  100 systematic absences,  Orientation as input
REM Formula found by SHELXT:  C14 N5 O3

CELL  0.71073   7.0400   9.2900  11.5500   90.000   97.870   90.000
ZERR   16.000   0.0014   0.0019   0.0023    0.000    0.030    0.000
LATT -1
SYMM 1/2+X, -Y, 1/2+Z
SFAC C N O
UNIT 16 16 16
L.S. 10
BOND
LIST 6
FMAP 2
PLAN 20
N001  2  0.58695  0.10694  0.43227 11.00000  0.04275   8.21
C002  1  0.67469  0.25755  0.27150 11.00000  0.04381   7.96
O003  3  0.66518 -0.17007  0.71646 11.00000  0.03784   7.95
N004  2  0.37673  0.58527  0.36491 11.00000  0.04783   7.26
N005  2  0.78277  0.01177  0.59697 11.00000  0.04594   7.01
N006  2  0.55059  0.19934  0.33553 11.00000  0.04171   6.89
O007  3  0.14705  0.24049  0.68465 11.00000  0.04632   6.77
N008  2  0.46401 -0.08112  0.55042 11.00000  0.04630   6.75
C009  1  0.44251  0.30234  0.65533 11.00000  0.03968   6.06
C00A  1  0.24360  0.39417  0.48058 11.00000  0.04203   6.05
C00B  1  0.44085  0.00988  0.44983 11.00000  0.04415   6.00
C00C  1  0.22104  0.48485  0.37737 11.00000  0.04703   5.83
C00D  1  0.54045  0.57739  0.43907 11.00000  0.06243   5.73
C00E  1  0.76078  0.10635  0.51003 11.00000  0.04089   5.65
C00F  1  0.55727  0.48077  0.52958 11.00000  0.04364   5.62
C00G  1  0.59333  0.34821  0.17675 11.00000  0.04632   5.61
C00H  1  0.41301  0.15000  0.82325 11.00000  0.04873   5.60
C00I  1  0.34313  0.67730  0.27145 11.00000  0.04706   5.39
O00J  3  0.85295  0.25157  0.29996 11.00000  0.06394   5.23
C00K  1  0.64273 -0.07973  0.62455 11.00000  0.04159   4.49
C00L  1  0.40948  0.39429  0.55592 11.00000  0.04294   4.29
C00M  1  0.31991  0.23401  0.71204 11.00000  0.04010   4.02
HKLF 4
END
