TITL 2_expF_1_5_expS_0_6_2_a.res in P2(1)/n
REM Old TITL 1 in P2/n
REM SHELXT solution in P2(1)/n: R1 0.274, Rweak 0.096, Alpha 0.133
REM <I/s>   1.123 for  106 systematic absences,  Orientation as input
REM Formula found by SHELXT:  C9 N O

CELL  0.71073   7.0400   9.2900  11.5500   90.000   97.870   90.000
ZERR   16.000   0.0014   0.0019   0.0023    0.000    0.030    0.000
LATT  1
SYMM 1/2-X, 1/2+Y, 1/2-Z
SFAC C N O
UNIT 16 16 16
L.S. 10
BOND
LIST 6
FMAP 2
PLAN 20
N001  2  0.44857  0.55120  0.66103 11.00000  0.02701   6.62
O002  3  0.14955  0.49370  0.69157 11.00000  0.03392   6.37
C003  1  0.33493  0.92483  0.27809 11.00000  0.01699   6.25
C004  1  0.32163  0.48785  0.72137 11.00000  0.02016   6.23
C005  1  0.41129  0.64252  0.56170 11.00000  0.02183   6.06
C006  1  0.36733  0.82994  0.37018 11.00000  0.02322   5.99
C007  1  0.21947  0.73600  0.38962 11.00000  0.02270   5.81
C008  1  0.24006  0.64259  0.48504 11.00000  0.02271   5.71
C009  1  0.54023  0.82873  0.44526 11.00000  0.02643   5.59
C00A  1  0.40870  0.39928  0.82314 11.00000  0.02357   5.44
C00B  1  0.56110  0.73560  0.54063 11.00000  0.02458   5.32
HKLF 4
END
