TITL 2_expF_1_1_expS_1_1_2_a.res in P2(1)/n
REM Old TITL 1 in P2/n
REM SHELXT solution in P2(1)/n: R1 0.277, Rweak 0.029, Alpha 0.067
REM <I/s>   1.415 for  106 systematic absences,  Orientation as input
REM Formula found by SHELXT:  C10 O

CELL  0.71073   7.0400   9.2900  11.5500   90.000   97.870   90.000
ZERR   16.000   0.0014   0.0019   0.0023    0.000    0.030    0.000
LATT  1
SYMM 1/2-X, 1/2+Y, 1/2-Z
SFAC C N O
UNIT 16 16 16
L.S. 10
BOND
LIST 6
FMAP 2
PLAN 20
C001  1  0.44783  0.44721  0.65987 11.00000  0.03226   6.34
C002  1  0.33771  0.07725  0.27845 11.00000  0.02851   6.30
C003  1  0.21889  0.26282  0.39046 11.00000  0.03805   6.21
O004  3  0.14907  0.50556  0.69168 11.00000  0.05404   6.15
C005  1  0.41210  0.35604  0.56149 11.00000  0.03507   6.00
C006  1  0.32164  0.51261  0.72148 11.00000  0.03571   6.00
C007  1  0.53707  0.17068  0.44394 11.00000  0.04131   5.96
C008  1  0.56084  0.26515  0.54028 11.00000  0.04099   5.76
C009  1  0.23962  0.35639  0.48569 11.00000  0.03746   5.73
C00A  1  0.36716  0.16888  0.37022 11.00000  0.03811   5.72
C00B  1  0.40940  0.60092  0.82352 11.00000  0.04138   5.44
HKLF 4
END
