TITL 2_expF_1_4_expS_0_7_2_c.res in P2(1)
REM Old TITL 1 in P2/n
REM SHELXT solution in P2(1): R1 0.246, Rweak 0.068, Alpha 0.114
REM <I/s>   2.354 for    6 systematic absences,  Orientation as input
REM Formula found by SHELXT:  C16 N2 O4

CELL  0.71073   7.0400   9.2900  11.5500   90.000   97.870   90.000
ZERR   16.000   0.0014   0.0019   0.0023    0.000    0.030    0.000
LATT -1
SYMM -X, 1/2+Y, -Z
SFAC C N O
UNIT 16 16 16
L.S. 10
BOND
LIST 6
FMAP 2
PLAN 20
O001  3  0.18805  0.52998  0.70775 11.00000  0.05961   8.02
O002  3  0.30785  0.69585  0.59132 11.00000  0.04001   7.87
O003  3  0.60464  0.74875  0.56103 11.00000  0.03375   7.60
N004  2  0.38354  0.42605  0.87724 11.00000  0.03641   6.99
N005  2  0.91592  0.67765  0.46803 11.00000  0.02715   6.53
C006  1  0.92827  0.23788  0.03406 11.00000  0.02198   6.52
C007  1  0.33830  0.61093  0.68896 11.00000  0.02120   6.42
C008  1  0.71618  0.58031  0.30210 11.00000  0.03818   6.42
C009  1  1.03073  0.48321  0.36232 11.00000  0.01914   6.29
C00A  1  0.41323  0.33011  0.97638 11.00000  0.02016   6.20
C00B  1  0.50358  0.61035  0.76526 11.00000  0.02719   6.18
C00C  1  0.42909  0.76267  0.52376 11.00000  0.03202   5.78
C00D  1  0.84656  0.14901 -0.07123 11.00000  0.02365   5.69
C00E  1  0.83858  0.39922  0.18796 11.00000  0.03290   5.69
C00F  1  0.53356  0.50784  0.85695 11.00000  0.04044   5.68
C00G  1  0.33718  0.85099  0.42443 11.00000  0.03985   5.36
C00H  1  1.01397  0.39737  0.26365 11.00000  0.02765   5.24
C00I  1  0.79548  0.29762  0.08817 11.00000  0.02616   5.21
C00J  1  0.20495  0.42339  0.80768 11.00000  0.02729   5.20
O00K  3  1.09644  0.23481  0.05631 11.00000  0.04273   5.05
C00L  1  0.88400  0.58730  0.38357 11.00000  0.02940   4.98
C00M  1  0.69162  0.49956  0.20988 11.00000  0.02132   3.26
HKLF 4
END
