TITL 2_expF_0_6_expS_1_2_2_a.res in Pn
REM Old TITL 1 in P2/n
REM SHELXT solution in Pn: R1 0.236, Rweak 0.169, Alpha 0.072
REM <I/s>   0.958 for  100 systematic absences,  Orientation as input
REM Formula found by SHELXT:  C12 N2 O5

CELL  0.71073   7.0400   9.2900  11.5500   90.000   97.870   90.000
ZERR   16.000   0.0014   0.0019   0.0023    0.000    0.030    0.000
LATT -1
SYMM 1/2+X, -Y, 1/2+Z
SFAC C N O
UNIT 16 16 16
L.S. 10
BOND
LIST 6
FMAP 2
PLAN 20
O001  3  0.66322  0.67346  0.71839 11.00000  0.00010   9.95
O002  3  0.77734  0.48540  0.60858 11.00000  0.00262   8.34
O003  3  0.14788  0.26186  0.68708 11.00000  0.01937   7.88
O004  3  0.75646  0.39433  0.51207 11.00000  0.00536   7.69
N005  2  0.58235  0.39342  0.43859 11.00000  0.01424   7.01
N006  2  0.68169  0.24012  0.27062 11.00000  0.02303   6.64
C007  1  0.41532  0.35278  0.82209 11.00000  0.01720   6.11
C008  1  0.37168 -0.08112  0.37023 11.00000  0.01072   6.10
C009  1  0.55682  0.00896  0.54417 11.00000  0.01565   6.02
C00A  1  0.44937  0.20156  0.65777 11.00000  0.01055   6.02
C00B  1  0.55275  0.30046  0.33658 11.00000  0.01498   5.70
C00C  1  0.54814 -0.08058  0.44451 11.00000  0.02119   5.42
C00D  1  0.43117  0.47880  0.46189 11.00000  0.01412   4.61
C00E  1  0.63524  0.57634  0.63128 11.00000  0.02239   4.52
C00F  1  0.32417  0.26895  0.71022 11.00000  0.01168   4.50
C00G  1  0.59785  0.15095  0.17791 11.00000  0.01305   4.26
C00H  1  0.39913  0.10947  0.56068 11.00000  0.01821   4.19
C00I  1  0.46478  0.57789  0.55123 11.00000  0.02999   4.18
O00J  3  0.85212  0.25161  0.30445 11.00000  0.02708   4.04
HKLF 4
END
