TITL 2_expF_1_2_expS_0_6_2_a.res in Pn
REM Old TITL 1 in P2/n
REM SHELXT solution in Pn: R1 0.240, Rweak 0.181, Alpha 0.097
REM <I/s>   0.957 for  100 systematic absences,  Orientation as input
REM Formula found by SHELXT:  C8 N4 O7

CELL  0.71073   7.0400   9.2900  11.5500   90.000   97.870   90.000
ZERR   16.000   0.0014   0.0019   0.0023    0.000    0.030    0.000
LATT -1
SYMM 1/2+X, -Y, 1/2+Z
SFAC C N O
UNIT 16 16 16
L.S. 10
BOND
LIST 6
FMAP 2
PLAN 20
O001  3  0.22873  0.48792  0.39042 11.00000  0.00011  10.17
O002  3  0.85251  0.25824  0.30803 11.00000  0.01737   9.59
O003  3  0.34151  0.67371  0.27638 11.00000  0.00010   9.57
O004  3  0.63868 -0.08248  0.63086 11.00000  0.00974   9.43
N005  2  0.42498  0.39522  0.55957 11.00000  0.00783   8.72
C006  1  0.32804  0.24520  0.72776 11.00000  0.01514   8.21
O007  3  0.54760  0.19707  0.33681 11.00000  0.02430   7.62
N008  2  0.45472  0.01528  0.45507 11.00000  0.01716   7.43
O009  3  0.77909  0.10512  0.51364 11.00000  0.06289   7.34
N00A  2  0.44516  0.29601  0.65754 11.00000  0.01698   7.23
N00B  2  0.41713  0.15039  0.82238 11.00000  0.02211   6.68
C00C  1  0.55117  0.58404  0.45025 11.00000  0.01375   6.00
C00D  1  0.60055  0.35499  0.17762 11.00000  0.01078   5.58
C00E  1  0.46868 -0.07930  0.55684 11.00000  0.02852   5.42
C00F  1  0.68261  0.27106  0.28412 11.00000  0.00467   5.17
C00G  1  0.57482  0.48582  0.53551 11.00000  0.01785   4.68
O00H  3  0.14749  0.24711  0.69062 11.00000  0.02764   4.39
C00I  1  0.25452  0.39089  0.48501 11.00000  0.00186   4.13
C00J  1  0.60245  0.10982  0.43540 11.00000  0.02157   3.80
HKLF 4
END
