TITL 2_expF_1_5_expS_1_3_2_a.res in P2(1)/n
REM Old TITL 1 in P2/n
REM SHELXT solution in P2(1)/n: R1 0.453, Rweak 0.032, Alpha 0.022
REM <I/s>   2.015 for  106 systematic absences,  Orientation as input
REM Formula found by SHELXT:  C9 N O

CELL  0.71073   7.0400   9.2900  11.5500   90.000   97.870   90.000
ZERR   16.000   0.0014   0.0019   0.0023    0.000    0.030    0.000
LATT  1
SYMM 1/2-X, 1/2+Y, 1/2-Z
SFAC C N O
UNIT 16 16 16
L.S. 10
BOND
LIST 6
FMAP 2
PLAN 20
N001  2  0.65931  0.92222  0.72512 11.00000  0.08195   6.60
C002  1  0.77840  0.73587  0.60901 11.00000  0.08153   6.45
C003  1  0.46042  0.82412  0.56093 11.00000  0.08944   6.29
C004  1  0.55305  0.54795  0.33924 11.00000  0.07470   6.18
C005  1  0.44276  0.73781  0.45837 11.00000  0.07819   6.02
C006  1  0.59024  0.64534  0.43586 11.00000  0.07678   5.92
C007  1  0.67627  0.48695  0.28182 11.00000  0.09296   5.85
O008  3  0.85666  0.49968  0.30778 11.00000  0.09349   5.72
C009  1  0.62842  0.82640  0.63113 11.00000  0.07924   5.69
C00A  1  0.75955  0.64083  0.51393 11.00000  0.08471   5.61
C00B  1  0.59056  0.40040  0.17922 11.00000  0.09828   4.99
HKLF 4
END
