TITL 2_expF_1_1_expS_1_3_2_a.res in P2(1)/n
REM Old TITL 1 in P2/n
REM SHELXT solution in P2(1)/n: R1 0.323, Rweak 0.016, Alpha 0.052
REM <I/s>   1.282 for  106 systematic absences,  Orientation as input
REM Formula found by SHELXT:  C10 O

CELL  0.71073   7.0400   9.2900  11.5500   90.000   97.870   90.000
ZERR   16.000   0.0014   0.0019   0.0023    0.000    0.030    0.000
LATT  1
SYMM 1/2-X, 1/2+Y, 1/2-Z
SFAC C N O
UNIT 16 16 16
L.S. 10
BOND
LIST 6
FMAP 2
PLAN 20
C001  1  0.66248  0.92338  0.72239 11.00000  0.03323   6.49
C002  1  0.55396  0.55183  0.34055 11.00000  0.03955   6.36
C003  1  0.78287  0.73762  0.60943 11.00000  0.04491   6.09
C004  1  0.58951  0.64335  0.43783 11.00000  0.04029   6.02
C005  1  0.46272  0.83009  0.55585 11.00000  0.04772   6.01
O006  3  0.85310  0.49408  0.30827 11.00000  0.05820   5.92
C007  1  0.67824  0.48662  0.27924 11.00000  0.04591   5.91
C008  1  0.63368  0.83149  0.63000 11.00000  0.04567   5.81
C009  1  0.76063  0.64228  0.51438 11.00000  0.04491   5.80
C00A  1  0.44037  0.73353  0.46042 11.00000  0.04820   5.71
C00B  1  0.58819  0.40081  0.17711 11.00000  0.05337   5.27
HKLF 4
END
