TITL 2_expF_0_8_expS_1_1_2_a.res in Pn
REM Old TITL 1 in P2/n
REM SHELXT solution in Pn: R1 0.235, Rweak 0.081, Alpha 0.047
REM <I/s>   1.051 for  100 systematic absences,  Orientation as input
REM Formula found by SHELXT:  C11 N4 O5

CELL  0.71073   7.0400   9.2900  11.5500   90.000   97.870   90.000
ZERR   16.000   0.0014   0.0019   0.0023    0.000    0.030    0.000
LATT -1
SYMM 1/2+X, -Y, 1/2+Z
SFAC C N O
UNIT 16 16 16
L.S. 10
BOND
LIST 6
FMAP 2
PLAN 20
O001  3  0.81500  0.74230  0.31078 11.00000  0.00504  10.18
N002  2  0.37625  0.60753  0.56383 11.00000  0.00342   9.61
O003  3  0.29840  0.32485  0.27969 11.00000  0.02629   8.86
O004  3  0.18500  0.51455  0.39449 11.00000  0.03291   7.74
O005  3  0.49723  0.42437  0.44796 11.00000  0.02853   7.57
N006  2  0.60167  1.08356  0.64070 11.00000  0.04161   6.78
N007  2  0.41291  0.70142  0.66249 11.00000  0.02558   6.75
N008  2  0.51426  0.80383  0.34032 11.00000  0.02556   6.71
C009  1  0.28560  0.75297  0.72066 11.00000  0.02056   6.11
C00A  1  0.37356  0.84549  0.82384 11.00000  0.02320   6.04
C00B  1  0.71412  0.89340  0.51801 11.00000  0.01894   6.00
C00C  1  0.64047  0.72497  0.28279 11.00000  0.01930   5.99
O00D  3  0.40377  0.98567  0.45927 11.00000  0.03088   5.84
C00E  1  0.55786  0.64324  0.17616 11.00000  0.02499   5.83
C00F  1  0.19689  0.60650  0.48821 11.00000  0.02488   5.57
C00G  1  0.52209  0.50980  0.54253 11.00000  0.03486   5.53
C00H  1  0.75246  0.98945  0.61644 11.00000  0.02905   5.15
C00I  1  0.33268  0.42022  0.37472 11.00000  0.02087   4.85
C00J  1  0.62417  1.17210  0.72626 11.00000  0.02668   4.35
C00K  1  0.40265  1.08276  0.55874 11.00000  0.04924   4.01
HKLF 4
END
