TITL 2_expF_1_3_expS_1_4_2_a.res in P2(1)/n
REM Old TITL 1 in P2/n
REM SHELXT solution in P2(1)/n: R1 0.411, Rweak 0.019, Alpha 0.018
REM <I/s>   2.556 for  106 systematic absences,  Orientation as input
REM Formula found by SHELXT:  C9 N O

CELL  0.71073   7.0400   9.2900  11.5500   90.000   97.870   90.000
ZERR   16.000   0.0014   0.0019   0.0023    0.000    0.030    0.000
LATT  1
SYMM 1/2-X, 1/2+Y, 1/2-Z
SFAC C N O
UNIT 16 16 16
L.S. 10
BOND
LIST 6
FMAP 2
PLAN 20
N001  2  0.66224  0.92130  0.72523 11.00000  0.08163   6.71
C002  1  0.55400  0.55091  0.33862 11.00000  0.07520   6.24
C003  1  0.45909  0.83093  0.55744 11.00000  0.08822   6.24
C004  1  0.78338  0.73561  0.60941 11.00000  0.08061   6.19
C005  1  0.58798  0.64359  0.43470 11.00000  0.07230   6.19
C006  1  0.76711  0.63691  0.51465 11.00000  0.07877   5.83
C007  1  0.67701  0.48784  0.28413 11.00000  0.08455   5.82
C008  1  0.63192  0.82671  0.63077 11.00000  0.08056   5.78
C009  1  0.44332  0.73604  0.45670 11.00000  0.08963   5.70
O00A  3  0.85743  0.49855  0.31288 11.00000  0.09891   5.67
C00B  1  0.58749  0.40119  0.17775 11.00000  0.09297   5.28
HKLF 4
END
