TITL 2_expF_0_5_expS_1_2_2_a.res in Pn
REM Old TITL 1 in P2/n
REM SHELXT solution in Pn: R1 0.265, Rweak 0.268, Alpha 0.109
REM <I/s>   0.927 for  100 systematic absences,  Orientation as input
REM Formula found by SHELXT:  C8 N3 O6

CELL  0.71073   7.0400   9.2900  11.5500   90.000   97.870   90.000
ZERR   16.000   0.0014   0.0019   0.0023    0.000    0.030    0.000
LATT -1
SYMM 1/2+X, -Y, 1/2+Z
SFAC C N O
UNIT 16 16 16
L.S. 10
BOND
LIST 6
FMAP 2
PLAN 20
O001  3  0.07944  0.38949  0.49267 11.00000  0.00010  10.48
C002  1  0.86095 -0.08338  0.42344 11.00000  0.00010   9.38
O003  3  0.08130  0.15103  0.22792 11.00000  0.00010   9.31
N004  2  0.16451  0.23962  0.32946 11.00000  0.00297   8.65
O005  3  1.04882  0.01328  0.59118 11.00000  0.00914   7.59
O006  3  0.95718  0.19374  0.71334 11.00000  0.03011   7.48
N007  2 -0.04882  0.57508  0.60775 11.00000  0.00197   7.15
N008  2  0.33360  0.23848  0.36380 11.00000  0.01452   7.07
C009  1  0.71272  0.01111  0.44464 11.00000  0.01637   6.07
C00A  1  0.15696  0.67672  0.77208 11.00000  0.01288   6.03
O00B  3  0.82107 -0.17544  0.32842 11.00000  0.02092   5.77
C00C  1  0.27474  0.48107  0.66582 11.00000  0.01002   5.63
C00D  1  0.25536  0.38789  0.57694 11.00000  0.00898   5.51
O00E  3  0.63209  0.25675  0.74254 11.00000  0.01575   5.24
C00F  1  0.73994  0.09991  0.54324 11.00000  0.00567   4.90
C00G  1  0.05556  0.29748  0.39353 11.00000  0.00143   4.86
C00H  1  0.81314  0.27267  0.76934 11.00000  0.01467   4.66
HKLF 4
END
