TITL 2_expF_1_3_expS_0_8_2_a.res in P2(1)/n
REM Old TITL 1 in P2/n
REM SHELXT solution in P2(1)/n: R1 0.268, Rweak 0.048, Alpha 0.101
REM <I/s>   1.227 for  106 systematic absences,  Orientation as input
REM Formula found by SHELXT:  C9 N O

CELL  0.71073   7.0400   9.2900  11.5500   90.000   97.870   90.000
ZERR   16.000   0.0014   0.0019   0.0023    0.000    0.030    0.000
LATT  1
SYMM 1/2-X, 1/2+Y, 1/2-Z
SFAC C N O
UNIT 16 16 16
L.S. 10
BOND
LIST 6
FMAP 2
PLAN 20
N001  2  0.55013  0.44781  0.33919 11.00000  0.03553   6.57
C002  1  0.66426  0.07596  0.72214 11.00000  0.02262   6.47
O003  3  0.84995  0.50535  0.30821 11.00000  0.04507   6.36
C004  1  0.77901  0.26403  0.60913 11.00000  0.03087   6.14
C005  1  0.67822  0.51235  0.27845 11.00000  0.02732   6.04
C006  1  0.45901  0.17116  0.55503 11.00000  0.03334   5.83
C007  1  0.58788  0.35789  0.43846 11.00000  0.02981   5.83
C008  1  0.75940  0.35625  0.51444 11.00000  0.02942   5.82
C009  1  0.43919  0.26455  0.45914 11.00000  0.03127   5.77
C00A  1  0.63490  0.17005  0.63075 11.00000  0.03030   5.76
C00B  1  0.59239  0.60068  0.17695 11.00000  0.03383   5.36
HKLF 4
END
