TITL 2_expF_1_5_expS_1_4_2_a.res in Pn
REM Old TITL 1 in P2/n
REM SHELXT solution in Pn: R1 0.562, Rweak 0.001, Alpha 0.008
REM <I/s>   2.114 for  100 systematic absences,  Orientation as input
REM Formula found by SHELXT:  C34 N10 O7 Cl4

CELL  0.71073   7.0400   9.2900  11.5500   90.000   97.870   90.000
ZERR   16.000   0.0014   0.0019   0.0023    0.000    0.030    0.000
LATT -1
SYMM 1/2+X, -Y, 1/2+Z
SFAC C N O CL
UNIT 16 16 16 0
L.S. 10
BOND
LIST 6
FMAP 2
PLAN 20
CL01  4  0.73891  0.41257  0.70196 11.00000  0.12530  16.03
CL02  4  0.50900 -0.10251  0.63050 11.00000  0.12537  14.61
CL03  4  0.64890  0.69701  0.41189 11.00000  0.12154  13.42
CL04  4  0.75993  0.32835  0.79296 11.00000  0.12571  12.77
N005  2  0.53888  0.51410  0.52999 11.00000  0.05884  12.44
N006  2  0.42411 -0.26298  0.79142 11.00000  0.06531  12.07
N007  2  0.63521  0.07513  0.51495 11.00000  0.06745  11.33
O008  3  0.86062  0.60577  0.58603 11.00000  0.07240  11.20
N009  2  0.31520 -0.00774  0.46288 11.00000  0.06367  10.76
O00A  3  0.43535  0.17416  0.34839 11.00000  0.06276  10.73
O00B  3  0.87764  0.51318  0.67838 11.00000  0.07509  10.13
O00C  3  0.24900 -0.25850  0.76506 11.00000  0.06175  10.09
O00D  3  0.54415 -0.19858  0.72966 11.00000  0.06408   8.38
N00E  2  0.69313  0.85517  0.25068 11.00000  0.07640   7.96
O00F  3  0.64959 -0.41601  0.81987 11.00000  0.14251   7.71
N00G  2  0.56011  0.42178  0.62960 11.00000  0.06611   7.69
N00H  2  0.77477  0.76394  0.35138 11.00000  0.06200   7.28
C00I  1  0.69294  0.61007  0.50956 11.00000  0.06002   7.21
N00J  2  0.95223  0.75610  0.37958 11.00000  0.06388   7.19
N00K  2  0.21357 -0.17492  0.58393 11.00000  0.12252   6.96
C00L  1  0.82359  0.90462  0.17819 11.00000  0.12772   6.48
C00M  1  0.65886 -0.01358  0.61350 11.00000  0.06063   6.38
C00N  1  0.04835  0.52665  0.78899 11.00000  0.15906   6.23
C00O  1 -0.00837 -0.04492  0.60460 11.00000  0.11940   6.10
C00P  1  0.50408  0.66090  0.58839 11.00000  0.13178   5.87
C00Q  1  0.51057 -0.34396  0.89717 11.00000  0.07055   5.85
C00R  1  0.04335 -0.00549  0.45388 11.00000  0.16191   5.82
C00S  1  0.09159 -0.24130  0.50478 11.00000  0.11643   5.81
C00T  1  1.00837  0.54916  0.44908 11.00000  0.12818   5.45
C00U  1  0.33258 -0.10225  0.55632 11.00000  0.06120   5.42
C00V  1  0.66256  0.27024  0.83323 11.00000  0.11254   5.28
C00W  1  0.16316 -0.13683  0.62364 11.00000  0.15730   5.21
C00X  1  0.49270  0.80611  0.07803 11.00000  0.13840   5.20
C00Y  1  0.46403  0.07922  0.44319 11.00000  0.05817   5.13
C00Z  1  0.76832  0.28573  0.66090 11.00000  0.12433   5.12
C010  1  0.34111  0.43134  0.71206 11.00000  0.14018   5.06
O011  3  0.17708  0.48589  0.71397 11.00000  0.24941   4.95
C012  1  0.58590  0.77345  0.30104 11.00000  0.14263   4.95
C013  1  0.86715  1.03768  0.27329 11.00000  0.13324   4.81
C014  1  0.36438  0.25678  0.55067 11.00000  0.14167   4.81
C015  1  0.56225  0.27670  0.50021 11.00000  0.14827   4.76
C016  1  0.51193  0.81940  0.19510 11.00000  0.14795   4.74
C017  1  0.42979  0.34984  0.64603 11.00000  0.12877   4.70
C018  1  0.49209  0.14795  0.56467 11.00000  0.14581   4.65
C019  1  0.20174  0.64135  0.63515 11.00000  0.16624   4.63
N01A  2  0.45284  0.70726  0.04808 11.00000  0.15314   4.53
C01B  1  0.63818  0.13825  0.75084 11.00000  0.18994   4.44
C01C  1  0.81054  0.23373  0.93104 11.00000  0.16256   4.43
C01D  1  0.85126  0.66963  0.45368 11.00000  0.13153   4.42
C01E  1  0.71032  1.00909  0.25734 11.00000  0.16070   4.34
C01F  1  0.78751  0.13476  0.65259 11.00000  0.13396   4.29
C01G  1  0.48503  0.69296  0.37442 11.00000  0.10987   4.12
C01H  1  0.88383  0.04745  0.77767 11.00000  0.13099   4.09
C01I  1  0.41723  0.49941  0.64677 11.00000  0.18429   3.92
C01J  1  0.34364 -0.38172  0.95192 11.00000  0.14439   3.82
HKLF 4
END
