TITL 2_expF_0_9_expS_1_3_2_b.res in Pn
REM Old TITL 1 in P2/n
REM SHELXT solution in Pn: R1 0.247, Rweak 0.029, Alpha 0.017
REM <I/s>   1.286 for  100 systematic absences,  Orientation as input
REM Formula found by SHELXT:  C14 N3 O5

CELL  0.71073   7.0400   9.2900  11.5500   90.000   97.870   90.000
ZERR   16.000   0.0014   0.0019   0.0023    0.000    0.030    0.000
LATT -1
SYMM 1/2+X, -Y, 1/2+Z
SFAC C N O
UNIT 16 16 16
L.S. 10
BOND
LIST 6
FMAP 2
PLAN 20
N001  2  0.91414  0.89468  0.56019 11.00000  0.03777   8.45
O002  3  0.72112  0.98847  0.39246 11.00000  0.04034   7.78
N003  2  0.13128  0.41858  0.63013 11.00000  0.03937   7.44
O004  3  0.83068  1.17036  0.27557 11.00000  0.02664   7.33
O005  3  0.34343  0.76067  0.30909 11.00000  0.04001   7.14
C006  1  0.81784  0.74576  0.72504 11.00000  0.03492   6.94
N007  2  0.94460  0.79937  0.66080 11.00000  0.03297   6.85
C008  1  1.03816  1.08434  0.44818 11.00000  0.02953   6.09
C009  1 -0.06063  0.51635  0.45895 11.00000  0.03970   6.02
C00A  1  0.90982  0.64951  0.82269 11.00000  0.03774   6.00
C00B  1  0.25937  0.60788  0.51266 11.00000  0.03715   5.55
C00C  1 -0.03839  0.42815  0.55996 11.00000  0.04828   5.31
C00D  1  0.04799  0.69541  0.34031 11.00000  0.03608   5.26
C00E  1  0.74331  0.89422  0.48411 11.00000  0.03495   5.19
O00F  3  0.14613  0.31737  0.71413 11.00000  0.07916   5.08
C00G  1  0.17556  0.77012  0.28417 11.00000  0.02965   4.90
O00H  3  0.63803  0.74908  0.69324 11.00000  0.05706   4.66
C00I  1  0.09134  0.85310  0.17731 11.00000  0.04141   4.55
C00J  1  1.06063  0.98755  0.53909 11.00000  0.03406   4.51
C00K  1  0.28955  0.51612  0.61256 11.00000  0.06458   4.03
C00L  1  0.86857  1.08079  0.36956 11.00000  0.03740   3.46
C00M  1  0.08867  0.60934  0.43671 11.00000  0.03823   3.23
HKLF 4
END
