TITL 2_expF_0_9_expS_0_6_2_a.res in Pn
REM Old TITL 1 in P2/n
REM SHELXT solution in Pn: R1 0.270, Rweak 0.340, Alpha 0.186
REM <I/s>   0.882 for  100 systematic absences,  Orientation as input
REM Formula found by SHELXT:  C8 N5 O6

CELL  0.71073   7.0400   9.2900  11.5500   90.000   97.870   90.000
ZERR   16.000   0.0014   0.0019   0.0023    0.000    0.030    0.000
LATT -1
SYMM 1/2+X, -Y, 1/2+Z
SFAC C N O
UNIT 16 16 16
L.S. 10
BOND
LIST 6
FMAP 2
PLAN 20
O001  3  0.84777  0.75628  0.36440 11.00000  0.00010  10.50
N002  2  0.34973  1.07354  0.41634 11.00000  0.00010   9.95
O003  3  0.22676  0.89321  0.53501 11.00000  0.00010   9.40
O004  3  0.30554  1.16785  0.32446 11.00000  0.02712   8.89
O005  3  0.58096  0.84654  0.22868 11.00000  0.00010   8.68
O006  3  0.53695  0.70452  0.39299 11.00000  0.00934   8.32
C007  1  0.29701  0.74202  0.77132 11.00000  0.00194   7.85
N008  2  0.21906  0.98857  0.43518 11.00000  0.00791   7.47
N009  2  0.58435  0.60762  0.47643 11.00000  0.00738   7.20
N00A  2  0.42345  0.50195  0.50275 11.00000  0.00379   6.95
C00B  1  0.52415  1.07626  0.49376 11.00000  0.00251   6.24
N00C  2  0.79160  0.52292  0.65987 11.00000  0.02805   6.17
C00D  1  0.40156  0.88903  0.59820 11.00000  0.01112   6.15
C00E  1  0.43504  0.40883  0.60641 11.00000  0.02596   5.38
C00F  1  0.43111  0.81080  0.71458 11.00000  0.00755   5.02
C00G  1  0.54173  0.97098  0.58167 11.00000  0.00489   4.95
C00H  1  0.65371  0.77296  0.33250 11.00000  0.00537   4.85
O00I  3  0.15223  0.74611  0.74802 11.00000  0.04188   4.05
C00J  1  0.64993  0.32048  0.76944 11.00000  0.00010   4.04
HKLF 4
END
