TITL 2_expF_1_4_expS_0_7_2_a.res in P2(1)/n
REM Old TITL 1 in P2/n
REM SHELXT solution in P2(1)/n: R1 0.267, Rweak 0.071, Alpha 0.103
REM <I/s>   1.188 for  106 systematic absences,  Orientation as input
REM Formula found by SHELXT:  C9 N O

CELL  0.71073   7.0400   9.2900  11.5500   90.000   97.870   90.000
ZERR   16.000   0.0014   0.0019   0.0023    0.000    0.030    0.000
LATT  1
SYMM 1/2-X, 1/2+Y, 1/2-Z
SFAC C N O
UNIT 16 16 16
L.S. 10
BOND
LIST 6
FMAP 2
PLAN 20
N001  2  0.44876  0.55130  0.66090 11.00000  0.03075   6.61
O002  3  0.14959  0.49373  0.69170 11.00000  0.03919   6.36
C003  1  0.33557  0.92455  0.27804 11.00000  0.01975   6.27
C004  1  0.32179  0.48809  0.72138 11.00000  0.02335   6.20
C005  1  0.41148  0.64278  0.56161 11.00000  0.02481   6.03
C006  1  0.36701  0.82999  0.36990 11.00000  0.02671   5.94
C007  1  0.21910  0.73618  0.38996 11.00000  0.02636   5.87
C008  1  0.24008  0.64296  0.48521 11.00000  0.02617   5.75
C009  1  0.53938  0.82883  0.44493 11.00000  0.02995   5.59
C00A  1  0.40875  0.39911  0.82321 11.00000  0.02793   5.46
C00B  1  0.56084  0.73554  0.54068 11.00000  0.02825   5.42
HKLF 4
END
