TITL 2_expF_1_4_expS_0_6_2_b.res in Pn
REM Old TITL 1 in P2/n
REM SHELXT solution in Pn: R1 0.234, Rweak 0.115, Alpha 0.065
REM <I/s>   1.017 for  100 systematic absences,  Orientation as input
REM Formula found by SHELXT:  C14 N3 O4

CELL  0.71073   7.0400   9.2900  11.5500   90.000   97.870   90.000
ZERR   16.000   0.0014   0.0019   0.0023    0.000    0.030    0.000
LATT -1
SYMM 1/2+X, -Y, 1/2+Z
SFAC C N O
UNIT 16 16 16
L.S. 10
BOND
LIST 6
FMAP 2
PLAN 20
O001  3  0.45488  0.20111  0.65792 11.00000  0.00777  10.69
C002  1  0.32482  0.26232  0.72319 11.00000  0.02396   9.02
O003  3  0.24906  0.10233  0.48063 11.00000  0.02359   7.63
C004  1  0.41297  0.09911  0.56487 11.00000  0.01578   7.34
N005  2  0.66746  0.67647  0.71378 11.00000  0.03700   6.88
N006  2  0.22722  0.01549  0.38845 11.00000  0.02127   6.68
O007  3  0.85485  0.23948  0.30582 11.00000  0.01644   6.62
N008  2  0.47484  0.57611  0.55624 11.00000  0.02083   6.56
C009  1  0.41957  0.34735  0.82232 11.00000  0.01991   6.44
O00A  3  0.14515  0.24429  0.68732 11.00000  0.05423   6.38
C00B  1  0.37584 -0.08205  0.37055 11.00000  0.01966   6.25
C00C  1  0.64123  0.57563  0.62855 11.00000  0.02331   6.06
C00D  1  0.79116  0.48854  0.60876 11.00000  0.03572   5.89
C00E  1  0.44366  0.48854  0.45365 11.00000  0.03178   5.86
C00F  1  0.56499  0.01459  0.53559 11.00000  0.02011   5.67
C00G  1  0.34115 -0.17050  0.27269 11.00000  0.00800   5.50
C00H  1  0.58565  0.38540  0.44108 11.00000  0.02273   5.18
C00I  1  0.60400  0.14611  0.17768 11.00000  0.02758   5.16
C00J  1  0.56440 -0.08285  0.44692 11.00000  0.04386   5.07
C00K  1  0.76565  0.38490  0.50756 11.00000  0.04630   4.10
C00L  1  0.68197  0.23422  0.28212 11.00000  0.01705   3.99
HKLF 4
END
