TITL 2_expF_0_6_expS_1_4_2_c.res in P2(1)
REM Old TITL 1 in P2/n
REM SHELXT solution in P2(1): R1 0.242, Rweak 0.122, Alpha 0.155
REM <I/s>   1.994 for    6 systematic absences,  Orientation as input
REM Formula found by SHELXT:  C16 N4 O2

CELL  0.71073   7.0400   9.2900  11.5500   90.000   97.870   90.000
ZERR   16.000   0.0014   0.0019   0.0023    0.000    0.030    0.000
LATT -1
SYMM -X, 1/2+Y, -Z
SFAC C N O
UNIT 16 16 16
L.S. 10
BOND
LIST 6
FMAP 2
PLAN 20
N001  2  0.83594  0.60931  0.19296 11.00000  0.01388   7.36
N002  2  0.80318  0.69696  0.09135 11.00000  0.02120   7.30
N003  2  0.87529  0.42643  0.38183 11.00000  0.02339   6.86
N004  2  0.51158  0.39071  0.76475 11.00000  0.02661   6.70
O005  3  1.09755  0.75661  0.05587 11.00000  0.05044   6.17
C006  1  0.70170  0.41394  0.30270 11.00000  0.02000   5.91
C007  1  0.91755  0.31449  0.46922 11.00000  0.01244   5.91
C008  1  0.93103  0.77200  0.03378 11.00000  0.01489   5.86
C009  1  0.52757  0.47431  0.86249 11.00000  0.02145   5.71
C00A  1  0.84806  0.85238 -0.07354 11.00000  0.02050   5.60
C00B  1  0.41266  0.65884  0.97590 11.00000  0.01758   5.13
O00C  3  0.60618  0.24222  0.56066 11.00000  0.02330   5.08
C00D  1  0.42871  0.24606  0.52392 11.00000  0.02086   4.93
C00E  1  0.19571  0.48202  0.70624 11.00000  0.03943   4.93
C00F  1  0.68391  0.51357  0.21110 11.00000  0.01591   4.76
C00G  1  1.03422  0.50047  0.35811 11.00000  0.02308   4.70
C00H  1  0.29914  0.29700  0.58768 11.00000  0.02438   4.22
C00I  1  0.22191  0.57172  0.80887 11.00000  0.03330   4.07
C00J  1  0.33552  0.14762  0.42787 11.00000  0.03070   3.73
C00K  1  0.39098  0.59154  0.87800 11.00000  0.03043   3.42
C00L  1  1.00615  0.60767  0.26407 11.00000  0.03200   3.14
C00M  1  0.34711  0.39970  0.67935 11.00000  0.04675   3.08
HKLF 4
END
