TITL 2_expF_1_1_expS_1_1_2_b.res in Pn
REM Old TITL 1 in P2/n
REM SHELXT solution in Pn: R1 0.248, Rweak 0.027, Alpha 0.025
REM <I/s>   1.327 for  100 systematic absences,  Orientation as input
REM Formula found by SHELXT:  C13 N5 O4

CELL  0.71073   7.0400   9.2900  11.5500   90.000   97.870   90.000
ZERR   16.000   0.0014   0.0019   0.0023    0.000    0.030    0.000
LATT -1
SYMM 1/2+X, -Y, 1/2+Z
SFAC C N O
UNIT 16 16 16
L.S. 10
BOND
LIST 6
FMAP 2
PLAN 20
O001  3  0.77939  0.01323  0.60396 11.00000  0.04115   8.55
N002  2  0.59167  0.10951  0.43504 11.00000  0.03560   7.71
O003  3  0.54942  0.20078  0.33577 11.00000  0.05033   7.63
N004  2  0.67114 -0.16971  0.72155 11.00000  0.02567   7.17
N005  2  0.45921 -0.08026  0.55256 11.00000  0.04377   7.14
O006  3  0.14998  0.23960  0.68905 11.00000  0.03982   6.94
N007  2  0.55757  0.48956  0.54001 11.00000  0.04665   6.91
N008  2  0.59595  0.34971  0.17698 11.00000  0.04532   6.59
C009  1  0.76254  0.10378  0.51255 11.00000  0.03234   6.45
C00A  1  0.37373  0.58087  0.37010 11.00000  0.03599   6.37
C00B  1  0.32647  0.22876  0.71353 11.00000  0.03474   6.19
C00C  1  0.68157  0.25500  0.27289 11.00000  0.03215   5.99
C00D  1  0.34759  0.67732  0.27884 11.00000  0.03816   5.81
O00E  3  0.85002  0.25039  0.30532 11.00000  0.06220   5.32
C00F  1  0.53324  0.57924  0.44001 11.00000  0.04854   5.12
C00G  1  0.64077 -0.08252  0.62996 11.00000  0.03608   5.11
C00H  1  0.24438  0.39198  0.48378 11.00000  0.04062   5.06
C00I  1  0.44553  0.30460  0.65660 11.00000  0.02932   4.94
C00J  1  0.41633  0.39761  0.55764 11.00000  0.04053   4.68
C00K  1  0.43587  0.01843  0.45804 11.00000  0.03684   4.21
C00L  1  0.41370  0.14711  0.82302 11.00000  0.04453   4.12
C00M  1  0.21067  0.48519  0.37968 11.00000  0.06242   3.87
HKLF 4
END
