TITL 2_expF_1_2_expS_1_5_2_a.res in P2(1)/n
REM Old TITL 1 in P2/n
REM SHELXT solution in P2(1)/n: R1 0.402, Rweak 0.016, Alpha 0.018
REM <I/s>   2.069 for  106 systematic absences,  Orientation as input
REM Formula found by SHELXT:  C9 N O

CELL  0.71073   7.0400   9.2900  11.5500   90.000   97.870   90.000
ZERR   16.000   0.0014   0.0019   0.0023    0.000    0.030    0.000
LATT  1
SYMM 1/2-X, 1/2+Y, 1/2-Z
SFAC C N O
UNIT 16 16 16
L.S. 10
BOND
LIST 6
FMAP 2
PLAN 20
N001  2  0.66076  0.07690  0.72225 11.00000  0.07251   6.74
C002  1  0.55428  0.44774  0.34067 11.00000  0.07048   6.26
C003  1  0.46077  0.17579  0.55670 11.00000  0.07681   6.22
C004  1  0.78192  0.26360  0.60900 11.00000  0.07506   6.19
C005  1  0.58751  0.35153  0.43479 11.00000  0.06850   6.12
C006  1  0.76358  0.35814  0.51534 11.00000  0.07287   5.85
C007  1  0.67268  0.50860  0.28090 11.00000  0.08004   5.81
C008  1  0.44885  0.26640  0.46075 11.00000  0.07851   5.77
C009  1  0.63626  0.16821  0.63074 11.00000  0.07525   5.77
O00A  3  0.85824  0.50290  0.31078 11.00000  0.08743   5.69
C00B  1  0.58879  0.59149  0.17863 11.00000  0.08964   5.24
HKLF 4
END
