TITL 2_expF_1_5_expS_1_1_2_a.res in P2(1)/n
REM Old TITL 1 in P2/n
REM SHELXT solution in P2(1)/n: R1 0.380, Rweak 0.012, Alpha 0.024
REM <I/s>   1.485 for  106 systematic absences,  Orientation as input
REM Formula found by SHELXT:  C9 N O

CELL  0.71073   7.0400   9.2900  11.5500   90.000   97.870   90.000
ZERR   16.000   0.0014   0.0019   0.0023    0.000    0.030    0.000
LATT  1
SYMM 1/2-X, 1/2+Y, 1/2-Z
SFAC C N O
UNIT 16 16 16
L.S. 10
BOND
LIST 6
FMAP 2
PLAN 20
N001  2  0.66092  0.07409  0.72152 11.00000  0.05140   6.58
C002  1  0.45671  0.17095  0.55819 11.00000  0.06009   6.25
C003  1  0.55104  0.44719  0.33975 11.00000  0.04798   6.23
C004  1  0.78306  0.26432  0.60733 11.00000  0.05822   6.18
C005  1  0.58706  0.35772  0.43899 11.00000  0.05174   6.13
O006  3  0.85576  0.50489  0.30729 11.00000  0.06798   5.78
C007  1  0.76341  0.35569  0.51539 11.00000  0.05256   5.76
C008  1  0.43718  0.26439  0.46006 11.00000  0.05904   5.75
C009  1  0.67664  0.51286  0.27859 11.00000  0.05388   5.70
C00A  1  0.63288  0.16851  0.63131 11.00000  0.05460   5.68
C00B  1  0.58891  0.60136  0.17582 11.00000  0.06429   5.28
HKLF 4
END
