TITL 2_expF_1_5_expS_1_5_2_b.res in Pn
REM Old TITL 1 in P2/n
REM SHELXT solution in Pn: R1 0.645, Rweak 0.003, Alpha 0.006
REM <I/s>   2.245 for  100 systematic absences,  Orientation as input
REM Formula found by SHELXT:  C31 N10 O9

CELL  0.71073   7.0400   9.2900  11.5500   90.000   97.870   90.000
ZERR   16.000   0.0014   0.0019   0.0023    0.000    0.030    0.000
LATT -1
SYMM 1/2+X, -Y, 1/2+Z
SFAC C N O
UNIT 16 16 16
L.S. 10
BOND
LIST 6
FMAP 2
PLAN 20
N001  2  0.57206  0.60570  0.33168 11.00000  0.07929  11.67
N002  2  0.37495  0.51137  0.16248 11.00000  0.07288  11.36
O003  3  0.50152  0.32531  0.04825 11.00000  0.07561  11.08
O004  3  0.68532  0.42203  0.21013 11.00000  0.08196  10.53
N005  2  0.28214 -0.07256  0.89877 11.00000  0.07799  10.08
O006  3  0.51793  0.25423  0.57733 11.00000  0.07257   9.76
N007  2  0.40936  0.10428  0.78112 11.00000  0.07365   9.38
O008  3  0.20998  0.20035  0.61190 11.00000  0.07680   9.22
N009  2  0.09351  0.00799  0.72905 11.00000  0.08358   8.99
N00A  2  0.33757  0.26473  0.55677 11.00000  0.07898   8.38
C00B  1  0.48222  0.77318  0.49174 11.00000  0.06884   8.14
N00C  2  0.60695  0.70028  0.43135 11.00000  0.06803   7.93
O00D  3  0.31494 -0.17420  0.99147 11.00000  0.07630   7.81
O00E  3  0.07509  0.59841  0.30957 11.00000  0.15881   7.71
O00F  3  0.25217  0.34363  0.44600 11.00000  0.10017   7.55
O00G  3  0.38148  0.35552  0.40857 11.00000  0.16879   7.55
N00H  2  0.19049  0.80403  0.22541 11.00000  0.15479   7.09
N00I  2  0.62591  0.79610  0.49861 11.00000  0.15190   6.93
N00J  2  0.60651  0.53158  0.67914 11.00000  0.13136   6.64
C00K  1  0.62524  0.08118  1.04440 11.00000  0.17351   6.48
C00L  1  0.26614  0.69951  0.28379 11.00000  0.12793   6.48
C00M  1  0.24227  0.10457  0.70417 11.00000  0.08614   6.29
C00N  1  0.40628  0.60949  0.25091 11.00000  0.08625   6.17
C00O  1  0.22488  0.56217  0.41064 11.00000  0.19103   6.13
C00P  1  0.43974  0.01164  0.87427 11.00000  0.07584   6.11
C00Q  1  0.56247  0.48250  0.54139 11.00000  0.13313   6.03
C00R  1  0.51792  0.41852  0.13567 11.00000  0.08361   5.99
C00S  1  0.76849  0.92838  0.88277 11.00000  0.21107   5.97
C00T  1  0.50021 -0.31245  0.79196 11.00000  0.12634   5.96
C00U  1  0.34216 -0.10733  0.68497 11.00000  0.15165   5.95
C00V  1  0.91772  0.73477  0.74058 11.00000  0.13936   4.92
C00W  1  0.29815  0.75659  0.47087 11.00000  0.06948   4.87
C00X  1  0.97984  0.86608  0.85239 11.00000  0.11669   4.83
C00Y  1  0.31670 -0.17544  0.87610 11.00000  0.17212   4.67
C00Z  1  0.21564  0.08540  0.81225 11.00000  0.09424   4.64
C010  1  0.72644  0.55383  0.45646 11.00000  0.14169   4.47
C011  1  0.56043  0.01824  0.95144 11.00000  0.13660   4.41
C012  1  0.57889  0.38229  0.44069 11.00000  0.14519   4.33
C013  1  0.75239  0.86326  0.52806 11.00000  0.13205   4.14
C014  1  0.54111 -0.22549  0.73235 11.00000  0.12840   4.09
C015  1  0.28543  0.59588  0.09044 11.00000  0.16923   4.06
C016  1  0.21707 -0.21746  0.71453 11.00000  0.13600   4.04
C017  1  0.47594 -0.39800  0.87169 11.00000  0.14372   3.99
C018  1  0.49467 -0.09533  0.82630 11.00000  0.11993   3.90
C019  1  0.71912  0.50999  0.30742 11.00000  0.06675   3.89
C01A  1  0.02016  0.01163  0.65042 11.00000  0.12878   3.84
C01B  1  0.31612  0.78570  0.18766 11.00000  0.16880   3.74
C01C  1  0.81576  0.90999  0.67691 11.00000  0.15935   3.53
C01D  1  0.49481  0.23320 -0.04440 11.00000  0.11933   3.44
O01E  3  0.40480  0.02314  0.59951 11.00000  0.15531   3.42
HKLF 4
END
