TITL 2_expF_1_4_expS_0_8_2_a.res in P2(1)/n
REM Old TITL 1 in P2/n
REM SHELXT solution in P2(1)/n: R1 0.268, Rweak 0.039, Alpha 0.099
REM <I/s>   1.294 for  106 systematic absences,  Orientation as input
REM Formula found by SHELXT:  C10 O

CELL  0.71073   7.0400   9.2900  11.5500   90.000   97.870   90.000
ZERR   16.000   0.0014   0.0019   0.0023    0.000    0.030    0.000
LATT  1
SYMM 1/2-X, 1/2+Y, 1/2-Z
SFAC C N O
UNIT 16 16 16
L.S. 10
BOND
LIST 6
FMAP 2
PLAN 20
C001  1  0.44878  0.44816  0.66029 11.00000  0.02924   6.46
C002  1  0.33674  0.07663  0.27845 11.00000  0.02615   6.43
O003  3  0.14889  0.50563  0.69159 11.00000  0.04880   6.24
C004  1  0.21866  0.26246  0.39026 11.00000  0.03440   6.09
C005  1  0.41199  0.35663  0.56196 11.00000  0.03212   6.07
C006  1  0.32114  0.51303  0.72175 11.00000  0.03144   5.96
C007  1  0.53785  0.17068  0.44469 11.00000  0.03636   5.93
C008  1  0.36713  0.16905  0.37011 11.00000  0.03392   5.82
C009  1  0.23961  0.35796  0.48559 11.00000  0.03421   5.67
C00A  1  0.56108  0.26481  0.54072 11.00000  0.03646   5.54
C00B  1  0.41015  0.60002  0.82349 11.00000  0.03725   5.38
HKLF 4
END
