TITL 2_expF_1_5_expS_0_8_2_b.res in Pn
REM Old TITL 1 in P2/n
REM SHELXT solution in Pn: R1 0.242, Rweak 0.023, Alpha 0.012
REM <I/s>   1.329 for  100 systematic absences,  Orientation as input
REM Formula found by SHELXT:  C14 N5 O3

CELL  0.71073   7.0400   9.2900  11.5500   90.000   97.870   90.000
ZERR   16.000   0.0014   0.0019   0.0023    0.000    0.030    0.000
LATT -1
SYMM 1/2+X, -Y, 1/2+Z
SFAC C N O
UNIT 16 16 16
L.S. 10
BOND
LIST 6
FMAP 2
PLAN 20
O001  3  0.45730  0.30745  0.66484 11.00000  0.05295   9.04
O002  3  0.85036  0.26012  0.31113 11.00000  0.04217   8.60
N003  2  0.53715  0.58224  0.44880 11.00000  0.04085   7.19
C004  1  0.67884  0.26416  0.28789 11.00000  0.03719   7.16
N005  2  0.56411  0.49027  0.54633 11.00000  0.04617   7.00
N006  2  0.66539 -0.16884  0.72487 11.00000  0.03473   6.98
N007  2  0.59842  0.10806  0.44276 11.00000  0.05011   6.97
N008  2  0.22795  0.49196  0.39140 11.00000  0.05936   6.61
O009  3  0.34159  0.68040  0.28115 11.00000  0.05724   6.56
C00A  1  0.36472  0.58714  0.37016 11.00000  0.04109   6.49
C00B  1  0.78699  0.01701  0.61095 11.00000  0.03020   6.34
C00C  1  0.76253  0.10917  0.51446 11.00000  0.03850   6.00
C00D  1  0.24031  0.39691  0.48516 11.00000  0.03880   6.00
C00E  1  0.57918  0.35281  0.17639 11.00000  0.04907   5.71
C00F  1  0.62988 -0.07933  0.63077 11.00000  0.03711   5.65
C00G  1  0.39923  0.15079  0.82361 11.00000  0.03513   5.50
C00H  1  0.42219  0.39487  0.56648 11.00000  0.03007   5.49
C00I  1  0.45860 -0.07630  0.56332 11.00000  0.05678   5.26
C00J  1  0.32165  0.23942  0.72849 11.00000  0.03669   5.01
C00K  1  0.44471  0.01845  0.46605 11.00000  0.04298   4.97
C00L  1  0.14964  0.24969  0.69430 11.00000  0.04308   4.21
C00M  1  0.56033  0.20270  0.34615 11.00000  0.02779   3.97
HKLF 4
END
