TITL 2_expF_0_6_expS_1_4_2_a.res in P2(1)/n
REM Old TITL 1 in P2/n
REM SHELXT solution in P2(1)/n: R1 0.282, Rweak 0.120, Alpha 0.150
REM <I/s>   1.076 for  106 systematic absences,  Orientation as input
REM Formula found by SHELXT:  C9 N O

CELL  0.71073   7.0400   9.2900  11.5500   90.000   97.870   90.000
ZERR   16.000   0.0014   0.0019   0.0023    0.000    0.030    0.000
LATT  1
SYMM 1/2-X, 1/2+Y, 1/2-Z
SFAC C N O
UNIT 16 16 16
L.S. 10
BOND
LIST 6
FMAP 2
PLAN 20
N001  2  0.44831  0.55112  0.66110 11.00000  0.02405   6.74
O002  3  0.14953  0.49364  0.69147 11.00000  0.02970   6.47
C003  1  0.33438  0.92511  0.27818 11.00000  0.01488   6.22
C004  1  0.32144  0.48763  0.72129 11.00000  0.01782   6.15
C005  1  0.41115  0.64231  0.56180 11.00000  0.01954   5.93
C006  1  0.36759  0.82990  0.37038 11.00000  0.02053   5.93
C007  1  0.21971  0.73582  0.38929 11.00000  0.01983   5.89
C008  1  0.24005  0.64229  0.48491 11.00000  0.02012   5.76
C009  1  0.56127  0.73564  0.54062 11.00000  0.02180   5.61
C00A  1  0.54106  0.82861  0.44548 11.00000  0.02372   5.58
C00B  1  0.40865  0.39939  0.82307 11.00000  0.02030   5.40
HKLF 4
END
