TITL 2_expF_1_3_expS_1_3_2_a.res in P2(1)/n
REM Old TITL 1 in P2/n
REM SHELXT solution in P2(1)/n: R1 0.385, Rweak 0.011, Alpha 0.017
REM <I/s>   1.538 for  106 systematic absences,  Orientation as input
REM Formula found by SHELXT:  C9 N O

CELL  0.71073   7.0400   9.2900  11.5500   90.000   97.870   90.000
ZERR   16.000   0.0014   0.0019   0.0023    0.000    0.030    0.000
LATT  1
SYMM 1/2-X, 1/2+Y, 1/2-Z
SFAC C N O
UNIT 16 16 16
L.S. 10
BOND
LIST 6
FMAP 2
PLAN 20
N001  2  0.33938  0.07480  0.27704 11.00000  0.06804   6.70
C002  1  0.54422  0.16992  0.44226 11.00000  0.07753   6.33
C003  1  0.21930  0.26244  0.39109 11.00000  0.07018   6.28
C004  1  0.44769  0.44556  0.66218 11.00000  0.06564   6.12
C005  1  0.55920  0.26194  0.54104 11.00000  0.07205   6.12
C006  1  0.23604  0.35760  0.48508 11.00000  0.06599   6.05
C007  1  0.41569  0.35791  0.56476 11.00000  0.06066   5.75
O008  3  0.14268  0.50176  0.68896 11.00000  0.08925   5.71
C009  1  0.36569  0.17059  0.36887 11.00000  0.06610   5.69
C00A  1  0.32501  0.51360  0.71982 11.00000  0.07026   5.66
C00B  1  0.40893  0.59882  0.82483 11.00000  0.07937   5.16
HKLF 4
END
