TITL 2_expF_0_8_expS_1_2_2_c.res in P2(1)
REM Old TITL 1 in P2/n
REM SHELXT solution in P2(1): R1 0.242, Rweak 0.072, Alpha 0.125
REM <I/s>   2.300 for    6 systematic absences,  Orientation as input
REM Formula found by SHELXT:  C14 N4 O4

CELL  0.71073   7.0400   9.2900  11.5500   90.000   97.870   90.000
ZERR   16.000   0.0014   0.0019   0.0023    0.000    0.030    0.000
LATT -1
SYMM -X, 1/2+Y, -Z
SFAC C N O
UNIT 16 16 16
L.S. 10
BOND
LIST 6
FMAP 2
PLAN 20
C001  1  0.92929  0.76500  0.03351 11.00000  0.02257   7.87
O002  3  0.91039  0.32424  0.46797 11.00000  0.05193   7.77
N003  2  0.83351  0.61491  0.18993 11.00000  0.01426   7.58
N004  2  1.03022  0.51339  0.36237 11.00000  0.03771   7.47
N005  2  0.70478  0.42637  0.30645 11.00000  0.01952   7.07
C006  1  0.88034  0.41744  0.38050 11.00000  0.03174   7.06
O007  3  0.60367  0.25414  0.55680 11.00000  0.03721   6.94
N008  2  0.30829  0.29581  0.59237 11.00000  0.02463   6.81
C009  1  0.19029  0.49800  0.70670 11.00000  0.02954   6.43
C00A  1  0.51481  0.39796  0.76268 11.00000  0.02579   6.24
C00B  1  0.84606  0.85029 -0.07150 11.00000  0.03047   6.17
C00C  1  0.79559  0.69221  0.08739 11.00000  0.01980   6.15
O00D  3  1.10065  0.76740  0.06039 11.00000  0.03646   5.92
C00E  1  1.00560  0.61355  0.26641 11.00000  0.02227   5.52
O00F  3  0.41508  0.67264  0.97467 11.00000  0.03376   5.39
C00G  1  0.69003  0.52528  0.21176 11.00000  0.02541   5.14
C00H  1  0.53035  0.48580  0.85812 11.00000  0.02774   5.13
C00I  1  0.22110  0.58805  0.80048 11.00000  0.06037   5.12
C00J  1  0.34985  0.41124  0.68295 11.00000  0.05561   5.03
C00K  1  0.34077  0.14971  0.42458 11.00000  0.03031   5.00
C00L  1  0.38397  0.58118  0.87916 11.00000  0.02006   5.00
C00M  1  0.42778  0.24084  0.52471 11.00000  0.02610   4.54
HKLF 4
END
