TITL 2_expF_1_3_expS_0_6_2_a.res in P2(1)/n
REM Old TITL 1 in P2/n
REM SHELXT solution in P2(1)/n: R1 0.295, Rweak 0.153, Alpha 0.179
REM <I/s>   1.039 for  106 systematic absences,  Orientation as input
REM Formula found by SHELXT:  C10 O

CELL  0.71073   7.0400   9.2900  11.5500   90.000   97.870   90.000
ZERR   16.000   0.0014   0.0019   0.0023    0.000    0.030    0.000
LATT  1
SYMM 1/2-X, 1/2+Y, 1/2-Z
SFAC C N O
UNIT 16 16 16
L.S. 10
BOND
LIST 6
FMAP 2
PLAN 20
C001  1  0.32067  0.48641  0.72110 11.00000  0.01818   6.68
O002  3  0.14891  0.49459  0.69151 11.00000  0.02749   6.24
C003  1  0.44899  0.55082  0.66109 11.00000  0.01506   6.19
C004  1  0.33393  0.92436  0.27795 11.00000  0.01570   6.15
C005  1  0.22127  0.73603  0.38932 11.00000  0.01965   6.05
C006  1  0.36667  0.83032  0.37062 11.00000  0.01986   6.03
C007  1  0.41137  0.64224  0.56229 11.00000  0.02026   5.89
C008  1  0.24081  0.64239  0.48513 11.00000  0.01831   5.82
C009  1  0.56176  0.73595  0.54079 11.00000  0.02057   5.78
C00A  1  0.54356  0.82881  0.44635 11.00000  0.02331   5.56
C00B  1  0.40686  0.39990  0.82261 11.00000  0.01957   5.49
HKLF 4
END
