TITL 2_expF_1_4_expS_1_5_2_a.res in Pn
REM Old TITL 1 in P2/n
REM SHELXT solution in Pn: R1 0.571, Rweak 0.001, Alpha 0.013
REM <I/s>   2.124 for  100 systematic absences,  Orientation as input
REM Formula found by SHELXT:  C27 N12 O5 Cl8

CELL  0.71073   7.0400   9.2900  11.5500   90.000   97.870   90.000
ZERR   16.000   0.0014   0.0019   0.0023    0.000    0.030    0.000
LATT -1
SYMM 1/2+X, -Y, 1/2+Z
SFAC C N O CL
UNIT 16 16 16 0
L.S. 10
BOND
LIST 6
FMAP 2
PLAN 20
CL01  4  0.89957  0.41554  0.33556 11.00000  0.11308  17.26
CL02  4  0.12666  0.89452  0.40156 11.00000  0.11996  15.93
CL03  4  0.98643  0.69516  0.62903 11.00000  0.11335  15.03
CL04  4  0.21349  0.73533  0.24842 11.00000  0.12199  13.44
CL05  4  1.09754  0.50984  0.50845 11.00000  0.12375  13.28
CL06  4  0.87862  0.32313  0.24545 11.00000  0.12489  13.13
CL07  4 -0.00269  1.07648  0.52415 11.00000  0.12905  12.87
CL08  4  0.77322  0.60270  0.45381 11.00000  0.11980  12.67
O009  3  0.20357  1.17302  0.69074 11.00000  0.05800  11.93
N00A  2  0.32175  0.99050  0.57790 11.00000  0.06044  11.85
O00B  3  0.75249  0.51255  0.35995 11.00000  0.07300  11.05
O00C  3  0.38671  0.74169  0.27526 11.00000  0.06079  10.22
C00D  1  0.94347  0.85518  0.78790 11.00000  0.05963   9.28
N00E  2  0.09197  0.79710  0.30930 11.00000  0.05698   8.42
O00F  3  0.00248  0.58204  0.21775 11.00000  0.16069   8.35
N00G  2  0.68330  0.75667  0.65770 11.00000  0.05920   8.08
N00H  2  1.07861  0.42242  0.41237 11.00000  0.06333   7.63
N00I  2  0.94892  0.60732  0.52901 11.00000  0.05910   7.32
N00J  2  0.86115  0.76122  0.68590 11.00000  0.05827   7.21
N00K  2  0.44394  0.83363  0.48060 11.00000  0.15729   7.18
N00L  2  0.78559  0.88660  0.85709 11.00000  0.13197   7.03
N00M  2  0.15997  0.64584  0.43279 11.00000  0.15140   6.71
N00N  2 -0.01977  0.98670  0.42585 11.00000  0.06270   6.70
N00O  2  0.54626  1.06732  0.58404 11.00000  0.17404   6.65
C00P  1  0.52911  0.74150  0.55349 11.00000  0.13732   6.50
C00Q  1  0.94072  0.09088  0.26507 11.00000  0.15317   6.43
C00R  1  0.47017  0.89285  0.40356 11.00000  0.12929   6.40
C00S  1  0.29930  0.89548  0.48346 11.00000  0.05630   6.19
C00T  1 -0.28783  0.85406  0.47759 11.00000  0.14686   6.18
C00U  1  0.69437  0.23175  0.45351 11.00000  0.12285   5.85
C00V  1  0.98301  0.25759  0.20864 11.00000  0.10579   5.82
C00W  1  0.55190  0.56110  0.18984 11.00000  0.18432   5.78
C00X  1  0.88280  0.26477  0.36581 11.00000  0.12058   5.69
C00Y  1  0.12945  0.65205  0.14291 11.00000  0.06265   5.69
N00Z  2  1.02851  0.75456  0.74913 11.00000  0.14665   5.61
C010  1  0.84329  0.88027  0.61012 11.00000  0.13572   5.50
C011  1  0.16586  1.08072  0.59744 11.00000  0.05700   5.44
C012  1  1.21494  0.24411  0.49866 11.00000  0.17403   5.37
O013  3  0.57034  0.50337  0.29961 11.00000  0.18435   5.21
C014  1  0.77971  1.07534  0.77072 11.00000  0.17063   5.11
C015  1  1.21262  0.35805  0.39796 11.00000  0.12060   4.94
C016  1  1.22680  0.78462  0.59264 11.00000  0.12837   4.78
C017  1  1.28783  0.41860  0.34711 11.00000  0.13784   4.76
C018  1 -0.07936  0.86087  0.47927 11.00000  0.14802   4.73
C019  1  0.28070  0.57640  0.39360 11.00000  0.11981   4.63
C01A  1  0.66595  0.56963  0.58025 11.00000  0.14610   4.62
C01B  1  0.05554  0.70292  0.43906 11.00000  0.14716   4.60
C01C  1  0.44650  0.66672  0.39041 11.00000  0.13930   4.56
C01D  1  1.17766  0.68902  0.66998 11.00000  0.11493   4.53
C01E  1  0.98317  0.31307  0.53658 11.00000  0.12371   4.44
C01F  1  0.72864  1.00340  0.74380 11.00000  0.12515   4.34
C01G  1  0.81062  0.64833  0.59499 11.00000  0.12313   4.31
HKLF 4
END
