TITL 2_expF_0_9_expS_0_9_2_a.res in P2(1)
REM Old TITL 1 in P2/n
REM SHELXT solution in P2(1): R1 0.241, Rweak 0.126, Alpha 0.204
REM <I/s>   1.927 for    6 systematic absences,  Orientation as input
REM Formula found by SHELXT:  C15 N3 O4

CELL  0.71073   7.0400   9.2900  11.5500   90.000   97.870   90.000
ZERR   16.000   0.0014   0.0019   0.0023    0.000    0.030    0.000
LATT -1
SYMM -X, 1/2+Y, -Z
SFAC C N O
UNIT 16 16 16
L.S. 10
BOND
LIST 6
FMAP 2
PLAN 20
O001  3  0.08928  0.66645  0.52112 11.00000  0.01621   9.06
O002  3  0.70680  0.70122  0.41327 11.00000  0.03324   7.68
C003  1  0.57013  0.75637  0.46918 11.00000  0.01479   7.67
O004  3  0.40443  0.76313  0.44121 11.00000  0.04516   6.92
N005  2  0.47065  0.51966  0.14393 11.00000  0.02162   6.88
N006  2  0.64706  0.85085  0.56939 11.00000  0.02194   6.82
N007  2  0.66480  0.60485  0.30970 11.00000  0.01257   6.75
C008  1  0.80265  0.42006  0.19372 11.00000  0.01168   6.36
C009  1  0.11396  0.58880  0.62348 11.00000  0.02533   6.34
C00A  1  0.81787  0.50708  0.29175 11.00000  0.01558   6.25
C00B  1  0.61878  0.42762  0.11702 11.00000  0.01325   6.21
C00C  1 -0.01168  0.40101  0.73483 11.00000  0.01419   6.17
O00D  3 -0.10629  0.24800  0.94065 11.00000  0.01843   6.10
C00E  1  0.19069  0.30254  0.90715 11.00000  0.01515   5.86
C00F  1  0.49457  0.61621  0.23576 11.00000  0.02066   5.27
C00G  1  0.15670  0.38699  0.81338 11.00000  0.04154   5.26
C00H  1  0.30200  0.47808  0.78669 11.00000  0.02556   5.20
C00I  1 -0.03374  0.49442  0.63290 11.00000  0.03158   5.02
C00J  1  0.07132  0.22766  0.97204 11.00000  0.01897   4.99
C00K  1  0.27519  0.57797  0.69630 11.00000  0.03420   4.97
C00L  1  0.16922  0.14915  1.07905 11.00000  0.02689   4.63
C00M  1  0.57875  0.31012  0.03805 11.00000  0.01922   3.48
HKLF 4
END
