TITL 2_expF_1_1_expS_1_3_2_b.res in Pn
REM Old TITL 1 in P2/n
REM SHELXT solution in Pn: R1 0.300, Rweak 0.015, Alpha 0.005
REM <I/s>   1.292 for  100 systematic absences,  Orientation as input
REM Formula found by SHELXT:  C11 N5 O8

CELL  0.71073   7.0400   9.2900  11.5500   90.000   97.870   90.000
ZERR   16.000   0.0014   0.0019   0.0023    0.000    0.030    0.000
LATT -1
SYMM 1/2+X, -Y, 1/2+Z
SFAC C N O
UNIT 16 16 16
L.S. 10
BOND
LIST 6
FMAP 2
PLAN 20
N001  2  0.16446  0.61022  0.31235 11.00000  0.03975   8.91
N002  2  0.88655 -0.08598  0.88119 11.00000  0.04508   8.30
C003  1  0.07524  0.76228  0.47177 11.00000  0.04319   8.24
O004  3 -0.02532  0.51121  0.14497 11.00000  0.05862   8.13
O005  3  0.28839  0.42348  0.19617 11.00000  0.05994   8.13
O006  3  0.08539  0.33071  0.02759 11.00000  0.04493   8.05
O007  3  0.19834  0.70236  0.41109 11.00000  0.05560   7.67
O008  3  1.10286  0.25590  0.56207 11.00000  0.05282   7.31
N009  2  1.01794  0.10231  0.76755 11.00000  0.04021   7.04
N00A  2  0.90936 -0.17748  0.97241 11.00000  0.04122   6.93
N00B  2  0.69957  0.01105  0.70711 11.00000  0.05192   6.53
C00C  1  0.80563  0.19655  0.59108 11.00000  0.03483   6.46
C00D  1  0.31821  0.51792  0.28776 11.00000  0.03709   6.37
C00E  1  0.15405  0.85090  0.57299 11.00000  0.04548   6.12
C00F  1  1.03772  0.01275  0.86265 11.00000  0.04315   6.02
C00G  1  0.00256  0.61073  0.23869 11.00000  0.04775   6.02
C00H  1  0.83255  0.34888  0.42554 11.00000  0.04720   5.99
C00I  1  0.71338 -0.08103  0.80803 11.00000  0.04738   5.90
O00J  3 -0.10286  0.75877  0.44560 11.00000  0.04781   5.87
C00K  1  0.93181  0.26467  0.53330 11.00000  0.04095   5.11
C00L  1  0.84075  0.10317  0.68753 11.00000  0.04272   4.93
C00M  1  0.12104  0.42029  0.12029 11.00000  0.04596   4.50
O00N  3  0.44171  0.51360  0.36758 11.00000  0.27931   3.14
O00O  3 -0.08171  0.61415  0.26051 11.00000  0.33189   3.09
HKLF 4
END
