TITL 2_expF_0_7_expS_1_3_2_b.res in Pn
REM Old TITL 1 in P2/n
REM SHELXT solution in Pn: R1 0.222, Rweak 0.077, Alpha 0.044
REM <I/s>   1.067 for  100 systematic absences,  Orientation as input
REM Formula found by SHELXT:  C15 N2 O5

CELL  0.71073   7.0400   9.2900  11.5500   90.000   97.870   90.000
ZERR   16.000   0.0014   0.0019   0.0023    0.000    0.030    0.000
LATT -1
SYMM 1/2+X, -Y, 1/2+Z
SFAC C N O
UNIT 16 16 16
L.S. 10
BOND
LIST 6
FMAP 2
PLAN 20
O001  3  0.14804  0.76012  0.68842 11.00000  0.01977   9.40
O002  3  0.75348  0.89803  0.51303 11.00000  0.03405   8.73
O003  3  0.66209  1.16982  0.72292 11.00000  0.01646   8.15
O004  3  0.77737  0.98878  0.60159 11.00000  0.02307   7.92
O005  3  0.54061  0.80145  0.33337 11.00000  0.03726   7.75
N006  2  0.54391  0.42213  0.44674 11.00000  0.03891   7.19
C007  1  0.32030  0.77579  0.71195 11.00000  0.01594   6.76
N008  2  0.63779  1.08356  0.62753 11.00000  0.02632   6.76
C009  1  0.58471  0.88955  0.43946 11.00000  0.02325   6.35
C00A  1  0.43899  0.98369  0.45522 11.00000  0.02482   6.02
C00B  1  0.67547  0.74934  0.27067 11.00000  0.02073   5.81
C00C  1  0.41740  0.85513  0.82305 11.00000  0.02661   5.80
C00D  1  0.40825  0.60546  0.56107 11.00000  0.02573   5.73
C00E  1  0.59888  0.65388  0.17695 11.00000  0.02382   5.55
C00F  1  0.55974  0.51031  0.53918 11.00000  0.02744   5.43
C00G  1  0.37341  0.42267  0.36704 11.00000  0.03129   5.07
C00H  1  0.44150  0.69924  0.65275 11.00000  0.01888   4.93
C00I  1  0.33501  0.31773  0.28455 11.00000  0.04197   4.37
C00J  1  0.21263  0.51873  0.37134 11.00000  0.05781   4.19
C00K  1  0.46492  1.08079  0.55723 11.00000  0.02829   3.98
C00L  1  0.85196  0.75076  0.30782 11.00000  0.03632   3.62
C00M  1  0.23254  0.61354  0.48386 11.00000  0.03394   3.07
HKLF 4
END
