TITL 2_expF_1_4_expS_1_4_2_b.res in Pn
REM Old TITL 1 in P2/n
REM SHELXT solution in Pn: R1 0.448, Rweak 0.008, Alpha 0.003
REM <I/s>   1.975 for   97 systematic absences,  Orientation as input
REM Formula found by SHELXT:  C15 N4 O4

CELL  0.71073   7.0400   9.2900  11.5500   90.000   97.870   90.000
ZERR   16.000   0.0014   0.0019   0.0023    0.000    0.030    0.000
LATT -1
SYMM 1/2+X, -Y, 1/2+Z
SFAC C N O
UNIT 16 16 16
L.S. 10
BOND
LIST 6
FMAP 2
PLAN 20
O001  3 -0.03122  0.98677  0.13845 11.00000  0.11671   8.48
N002  2  0.91381  0.67686  0.97391 11.00000  0.08462   7.12
N003  2  0.70946  0.57877  0.80617 11.00000  0.09260   7.08
N004  2  0.69194  0.48351  0.71161 11.00000  0.09684   6.95
N005  2  0.19501  0.79814  0.41036 11.00000  0.08838   6.86
C006  1  0.08912  1.17278  0.02609 11.00000  0.07665   6.49
C007  1 -0.01555  0.89263  0.23663 11.00000  0.08085   6.46
C008  1  0.92557  0.23728  0.53582 11.00000  0.08933   6.31
C009  1  0.11214  1.07989  0.12019 11.00000  0.08206   6.29
C00A  1  0.30681  0.98815  0.28996 11.00000  0.08276   6.28
C00B  1  0.80300  0.29896  0.58873 11.00000  0.07920   6.27
C00C  1  0.28984  1.08119  0.19361 11.00000  0.08440   6.22
C00D  1  0.16272  0.89391  0.31421 11.00000  0.07616   5.95
O00E  3 -0.10469  0.74916  0.44126 11.00000  0.10580   5.78
C00F  1  0.83671  0.39543  0.68870 11.00000  0.07568   5.66
O00G  3  1.10469  0.24215  0.55820 11.00000  0.10316   5.63
C00H  1  0.06990  0.73419  0.46742 11.00000  0.09428   5.59
C00I  1  1.02877  0.48799  0.85682 11.00000  0.07805   5.50
C00J  1  0.88500  0.58062  0.87870 11.00000  0.07858   5.40
C00K  1  0.15737  0.65167  0.57267 11.00000  0.09515   5.29
C00L  1  1.01116  0.39001  0.76761 11.00000  0.08442   4.58
C00M  1  0.84392  0.15442  0.42768 11.00000  0.09543   4.58
O00N  3  0.55167  0.49241  0.64737 11.00000  0.30874   3.76
HKLF 4
END
