TITL 2_expF_1_2_expS_1_2_2_b.res in Pn
REM Old TITL 1 in P2/n
REM SHELXT solution in Pn: R1 0.305, Rweak 0.012, Alpha 0.008
REM <I/s>   1.370 for  100 systematic absences,  Orientation as input
REM Formula found by SHELXT:  C15 N2 O6

CELL  0.71073   7.0400   9.2900  11.5500   90.000   97.870   90.000
ZERR   16.000   0.0014   0.0019   0.0023    0.000    0.030    0.000
LATT -1
SYMM 1/2+X, -Y, 1/2+Z
SFAC C N O
UNIT 16 16 16
L.S. 10
BOND
LIST 6
FMAP 2
PLAN 20
O001  3  0.71263  0.98531  0.39163 11.00000  0.08025   7.87
O002  3  0.95320  0.79792  0.66222 11.00000  0.05861   7.56
N003  2  0.91507  0.89067  0.56722 11.00000  0.04879   7.25
O004  3  0.83639  1.17208  0.28093 11.00000  0.05695   7.25
O005  3  0.35539  0.75788  0.30882 11.00000  0.05460   6.93
C006  1  0.18285  0.76682  0.28740 11.00000  0.04810   6.81
N007  2 -0.05962  0.50921  0.45884 11.00000  0.06535   6.63
C008  1  1.04075  1.07555  0.44181 11.00000  0.05027   6.46
C009  1  0.90464  0.64771  0.82391 11.00000  0.04801   6.40
C00A  1  0.74100  0.89692  0.48408 11.00000  0.04079   6.29
C00B  1 -0.03791  0.41750  0.55392 11.00000  0.04650   6.26
C00C  1  0.16267  0.32542  0.72524 11.00000  0.03577   6.21
C00D  1  0.13098  0.41811  0.62806 11.00000  0.04568   6.02
C00E  1  0.86080  1.08432  0.36723 11.00000  0.04635   5.79
C00F  1  0.26782  0.60944  0.51582 11.00000  0.05618   5.52
C00G  1  0.82650  0.74105  0.72581 11.00000  0.04415   5.28
C00H  1  0.05980  0.69304  0.34214 11.00000  0.04035   5.26
C00I  1  0.08909  0.60277  0.44226 11.00000  0.04322   5.25
O00J  3  0.64894  0.74564  0.69297 11.00000  0.06175   5.25
C00K  1  1.05962  0.97950  0.53875 11.00000  0.04226   5.03
C00L  1  0.28104  0.51358  0.60973 11.00000  0.04139   4.89
C00M  1  0.08622  0.84721  0.17609 11.00000  0.05768   4.27
O00N  3  0.62484  0.79224  0.49443 11.00000  0.23327   3.12
HKLF 4
END
