TITL 2_expF_0_6_expS_1_1_2_b.res in P2(1)
REM Old TITL 1 in P2/n
REM SHELXT solution in P2(1): R1 0.269, Rweak 0.228, Alpha 0.248
REM <I/s>   1.627 for    6 systematic absences,  Orientation as input
REM Formula found by SHELXT:  C13 N3 O4

CELL  0.71073   7.0400   9.2900  11.5500   90.000   97.870   90.000
ZERR   16.000   0.0014   0.0019   0.0023    0.000    0.030    0.000
LATT -1
SYMM -X, 1/2+Y, -Z
SFAC C N O
UNIT 16 16 16
L.S. 10
BOND
LIST 6
FMAP 2
PLAN 20
O001  3  0.19448  0.70470  0.90922 11.00000  0.00043   8.49
N002  2 -0.00783  0.61445  0.73570 11.00000  0.00010   7.46
C003  1  0.12384  0.43021  0.61592 11.00000  0.01778   6.93
N004  2 -0.03142  0.52487  0.63809 11.00000  0.00885   6.90
N005  2  0.66362  0.39410  0.31272 11.00000  0.00952   6.63
C006  1  0.65483  0.14982  0.56774 11.00000  0.01621   6.45
C007  1  0.29032  0.41966  0.69353 11.00000  0.02546   6.43
C008  1  0.07747  0.76992  0.97528 11.00000  0.00796   6.29
O009  3 -0.09686  0.75774  0.93859 11.00000  0.02057   6.26
O00A  3  0.39357  0.24723  0.44083 11.00000  0.01754   5.88
O00B  3  0.07993  0.34306  0.52188 11.00000  0.01009   5.77
C00C  1  0.30280  0.51533  0.79336 11.00000  0.01851   5.50
C00D  1  0.58259  0.70378  0.03316 11.00000  0.00732   5.32
C00E  1  0.56336  0.23990  0.46580 11.00000  0.01124   4.92
C00F  1  0.81325  0.48811  0.28688 11.00000  0.00974   4.72
C00G  1  0.16135  0.85018  1.07482 11.00000  0.00668   4.38
C00H  1  0.15661  0.60651  0.80963 11.00000  0.02351   4.16
C00I  1  0.46720  0.50187  0.13672 11.00000  0.02090   3.97
C00J  1  0.61434  0.58649  0.12312 11.00000  0.00705   3.74
C00K  1  0.79991  0.58184  0.19701 11.00000  0.00592   3.15
HKLF 4
END
