TITL 2_expF_1_5_expS_0_9_2_a.res in P2(1)/n
REM Old TITL 1 in P2/n
REM SHELXT solution in P2(1)/n: R1 0.304, Rweak 0.020, Alpha 0.055
REM <I/s>   1.506 for  106 systematic absences,  Orientation as input
REM Formula found by SHELXT:  C9 N O

CELL  0.71073   7.0400   9.2900  11.5500   90.000   97.870   90.000
ZERR   16.000   0.0014   0.0019   0.0023    0.000    0.030    0.000
LATT  1
SYMM 1/2-X, 1/2+Y, 1/2-Z
SFAC C N O
UNIT 16 16 16
L.S. 10
BOND
LIST 6
FMAP 2
PLAN 20
N001  2  0.33913  0.92363  0.27811 11.00000  0.03902   6.51
C002  1  0.44550  0.55185  0.65961 11.00000  0.03516   6.38
C003  1  0.32270  0.48745  0.72095 11.00000  0.04180   6.04
C004  1  0.22011  0.73674  0.39147 11.00000  0.04177   6.03
C005  1  0.41070  0.64326  0.56187 11.00000  0.03699   6.03
O006  3  0.14639  0.49475  0.69181 11.00000  0.05528   5.94
C007  1  0.53970  0.82892  0.44436 11.00000  0.04389   5.94
C008  1  0.36765  0.83189  0.37028 11.00000  0.03921   5.83
C009  1  0.23939  0.64216  0.48531 11.00000  0.04169   5.76
C00A  1  0.56059  0.73460  0.53879 11.00000  0.04543   5.62
C00B  1  0.41224  0.40228  0.82350 11.00000  0.04759   5.32
HKLF 4
END
