TITL 2_expF_0_8_expS_1_5_2_b.res in Pn
REM Old TITL 1 in P2/n
REM SHELXT solution in Pn: R1 0.246, Rweak 0.028, Alpha 0.023
REM <I/s>   1.325 for  100 systematic absences,  Orientation as input
REM Formula found by SHELXT:  C13 N6 O3

CELL  0.71073   7.0400   9.2900  11.5500   90.000   97.870   90.000
ZERR   16.000   0.0014   0.0019   0.0023    0.000    0.030    0.000
LATT -1
SYMM 1/2+X, -Y, 1/2+Z
SFAC C N O
UNIT 16 16 16
L.S. 10
BOND
LIST 6
FMAP 2
PLAN 20
N001  2  0.36081  0.58287  0.36860 11.00000  0.04027   8.17
N002  2  0.57994  0.10423  0.43774 11.00000  0.04176   7.76
O003  3  0.65920 -0.16997  0.72250 11.00000  0.02929   7.48
O004  3  0.14837  0.24092  0.68847 11.00000  0.04937   7.12
N005  2  0.54737  0.48744  0.53966 11.00000  0.05054   7.07
N006  2  0.77156  0.01212  0.60621 11.00000  0.03197   6.78
N007  2  0.45074  0.30307  0.66038 11.00000  0.04240   6.70
C008  1  0.67289  0.25540  0.27460 11.00000  0.03793   6.68
N009  2  0.22876  0.39368  0.48405 11.00000  0.04288   6.60
C00A  1  0.55528  0.20000  0.34026 11.00000  0.02545   6.14
C00B  1  0.52927  0.57707  0.43836 11.00000  0.04621   5.95
C00C  1  0.45296 -0.08245  0.55070 11.00000  0.03253   5.77
C00D  1  0.40328  0.14515  0.82304 11.00000  0.04022   5.40
C00E  1  0.58580  0.34832  0.17696 11.00000  0.04025   5.31
C00F  1  0.20742  0.48604  0.38522 11.00000  0.05844   5.27
C00G  1  0.31520  0.22988  0.71560 11.00000  0.03339   5.24
C00H  1  0.33908  0.68099  0.28221 11.00000  0.05196   5.17
O00I  3  0.85163  0.25298  0.30497 11.00000  0.04900   4.80
C00J  1  0.74581  0.10593  0.51192 11.00000  0.03965   4.47
C00K  1  0.42723  0.01560  0.45890 11.00000  0.03515   3.96
C00L  1  0.40550  0.39013  0.56105 11.00000  0.03667   3.89
C00M  1  0.62476 -0.08191  0.62920 11.00000  0.04133   3.09
HKLF 4
END
