TITL 2_expF_1_1_expS_0_8_2_a.res in P2(1)/n
REM Old TITL 1 in P2/n
REM SHELXT solution in P2(1)/n: R1 0.277, Rweak 0.103, Alpha 0.128
REM <I/s>   1.110 for  106 systematic absences,  Orientation as input
REM Formula found by SHELXT:  C9 N O

CELL  0.71073   7.0400   9.2900  11.5500   90.000   97.870   90.000
ZERR   16.000   0.0014   0.0019   0.0023    0.000    0.030    0.000
LATT  1
SYMM 1/2-X, 1/2+Y, 1/2-Z
SFAC C N O
UNIT 16 16 16
L.S. 10
BOND
LIST 6
FMAP 2
PLAN 20
N001  2  0.44848  0.55118  0.66104 11.00000  0.02604   6.59
O002  3  0.14954  0.49367  0.69153 11.00000  0.03257   6.44
C003  1  0.32158  0.48777  0.72134 11.00000  0.01937   6.28
C004  1  0.33478  0.92491  0.27814 11.00000  0.01628   6.20
C005  1  0.21953  0.73594  0.38952 11.00000  0.02175   6.06
C006  1  0.41123  0.64245  0.56173 11.00000  0.02109   5.92
C007  1  0.36742  0.82992  0.37021 11.00000  0.02234   5.92
C008  1  0.24003  0.64248  0.48499 11.00000  0.02190   5.72
C009  1  0.56115  0.73559  0.54065 11.00000  0.02364   5.52
C00A  1  0.40872  0.39930  0.82312 11.00000  0.02246   5.51
C00B  1  0.54047  0.82867  0.44529 11.00000  0.02557   5.50
HKLF 4
END
