TITL 2_expF_1_4_expS_1_1_2_a.res in P2(1)/n
REM Old TITL 1 in P2/n
REM SHELXT solution in P2(1)/n: R1 0.367, Rweak 0.013, Alpha 0.030
REM <I/s>   1.492 for  106 systematic absences,  Orientation as input
REM Formula found by SHELXT:  C9 N O

CELL  0.71073   7.0400   9.2900  11.5500   90.000   97.870   90.000
ZERR   16.000   0.0014   0.0019   0.0023    0.000    0.030    0.000
LATT  1
SYMM 1/2-X, 1/2+Y, 1/2-Z
SFAC C N O
UNIT 16 16 16
L.S. 10
BOND
LIST 6
FMAP 2
PLAN 20
N001  2  0.66043  0.07531  0.72174 11.00000  0.04309   6.55
C002  1  0.55294  0.44742  0.34052 11.00000  0.04094   6.26
C003  1  0.78099  0.26385  0.60905 11.00000  0.05018   6.10
C004  1  0.58773  0.35752  0.43742 11.00000  0.04248   6.08
C005  1  0.46013  0.17153  0.55602 11.00000  0.05127   6.08
C006  1  0.67839  0.51165  0.27986 11.00000  0.04597   5.88
O007  3  0.85515  0.50532  0.30811 11.00000  0.05944   5.81
C008  1  0.76268  0.35754  0.51600 11.00000  0.04492   5.80
C009  1  0.63269  0.16925  0.63011 11.00000  0.04613   5.80
C00A  1  0.44058  0.26693  0.46195 11.00000  0.04922   5.70
C00B  1  0.58782  0.59821  0.17640 11.00000  0.05390   5.23
HKLF 4
END
