TITL 2_expF_1_1_expS_1_5_2_a.res in P2(1)/n
REM Old TITL 1 in P2/n
REM SHELXT solution in P2(1)/n: R1 0.383, Rweak 0.011, Alpha 0.023
REM <I/s>   1.508 for  106 systematic absences,  Orientation as input
REM Formula found by SHELXT:  C9 N O

CELL  0.71073   7.0400   9.2900  11.5500   90.000   97.870   90.000
ZERR   16.000   0.0014   0.0019   0.0023    0.000    0.030    0.000
LATT  1
SYMM 1/2-X, 1/2+Y, 1/2-Z
SFAC C N O
UNIT 16 16 16
L.S. 10
BOND
LIST 6
FMAP 2
PLAN 20
N001  2  0.66035  0.07422  0.72198 11.00000  0.05137   6.74
C002  1  0.55221  0.44814  0.34028 11.00000  0.04694   6.30
C003  1  0.78207  0.26426  0.60910 11.00000  0.05841   6.18
C004  1  0.45599  0.17061  0.55581 11.00000  0.05749   6.14
C005  1  0.58527  0.35746  0.43811 11.00000  0.04939   6.11
C006  1  0.67651  0.51332  0.27954 11.00000  0.05384   5.90
O007  3  0.85637  0.50508  0.30706 11.00000  0.06708   5.83
C008  1  0.76304  0.35820  0.51547 11.00000  0.05047   5.82
C009  1  0.63531  0.16772  0.63098 11.00000  0.05434   5.81
C00A  1  0.43771  0.26726  0.46064 11.00000  0.06009   5.73
C00B  1  0.58954  0.59974  0.17604 11.00000  0.06258   5.27
HKLF 4
END
