TITL 2_expF_1_4_expS_1_1_2_c.res in P2(1)
REM Old TITL 1 in P2/n
REM SHELXT solution in P2(1): R1 0.344, Rweak 0.012, Alpha 0.039
REM <I/s>   3.651 for    6 systematic absences,  Orientation as input
REM Formula found by SHELXT:  C18 N2 O2

CELL  0.71073   7.0400   9.2900  11.5500   90.000   97.870   90.000
ZERR   16.000   0.0014   0.0019   0.0023    0.000    0.030    0.000
LATT -1
SYMM -X, 1/2+Y, -Z
SFAC C N O
UNIT 16 16 16
L.S. 10
BOND
LIST 6
FMAP 2
PLAN 20
N001  2  0.41139  0.67205  0.97096 11.00000  0.04677   6.77
N002  2  0.71361  0.41933  0.30495 11.00000  0.06963   6.60
C003  1  0.33898  0.39592  0.68665 11.00000  0.05105   6.42
C004  1  0.80642  0.69575  0.08976 11.00000  0.04439   6.33
C005  1  0.52876  0.48488  0.85942 11.00000  0.05091   6.30
C006  1  0.91326  0.32536  0.47312 11.00000  0.04298   6.22
C007  1  1.00931  0.60498  0.26582 11.00000  0.04944   6.17
C008  1  1.03581  0.51419  0.35947 11.00000  0.05894   6.08
C009  1  0.29944  0.30061  0.59098 11.00000  0.04876   6.02
O00A  3  1.10388  0.75439  0.05958 11.00000  0.06226   6.02
C00B  1  0.69628  0.50589  0.20801 11.00000  0.05107   5.97
C00C  1  0.43083  0.23775  0.53229 11.00000  0.05324   5.89
C00D  1  0.83536  0.60762  0.18817 11.00000  0.04669   5.78
C00E  1  0.88401  0.41948  0.38347 11.00000  0.05516   5.76
C00F  1  0.20848  0.57862  0.80687 11.00000  0.05412   5.73
C00G  1  0.92838  0.76116  0.02895 11.00000  0.05051   5.67
C00H  1  0.38141  0.58146  0.87742 11.00000  0.04917   5.66
C00I  1  0.18724  0.47448  0.71323 11.00000  0.05453   5.64
O00J  3  0.60401  0.24163  0.55630 11.00000  0.06530   5.53
C00K  1  0.34210  0.15196  0.42567 11.00000  0.05714   5.49
C00L  1  0.51384  0.39116  0.76501 11.00000  0.05067   5.39
C00M  1  0.83836  0.84804 -0.07351 11.00000  0.06147   4.93
HKLF 4
END
