TITL 2_expF_0_9_expS_1_5_2_a.res in P2(1)/n
REM Old TITL 1 in P2/n
REM SHELXT solution in P2(1)/n: R1 0.303, Rweak 0.019, Alpha 0.043
REM <I/s>   1.507 for  106 systematic absences,  Orientation as input
REM Formula found by SHELXT:  C10 O

CELL  0.71073   7.0400   9.2900  11.5500   90.000   97.870   90.000
ZERR   16.000   0.0014   0.0019   0.0023    0.000    0.030    0.000
LATT  1
SYMM 1/2-X, 1/2+Y, 1/2-Z
SFAC C N O
UNIT 16 16 16
L.S. 10
BOND
LIST 6
FMAP 2
PLAN 20
C001  1  0.33767  0.07804  0.27794 11.00000  0.03281   6.48
C002  1  0.44713  0.44781  0.65979 11.00000  0.03858   6.43
C003  1  0.21735  0.26192  0.39020 11.00000  0.04381   6.13
C004  1  0.41115  0.35634  0.56129 11.00000  0.03973   6.02
O005  3  0.14733  0.50553  0.69164 11.00000  0.05819   6.01
C006  1  0.32073  0.51317  0.72056 11.00000  0.04364   6.01
C007  1  0.53769  0.17031  0.44404 11.00000  0.04656   5.94
C008  1  0.23879  0.35725  0.48568 11.00000  0.04472   5.77
C009  1  0.36803  0.16843  0.37018 11.00000  0.04411   5.70
C00A  1  0.55978  0.26596  0.53928 11.00000  0.04760   5.53
C00B  1  0.41090  0.59837  0.82325 11.00000  0.04952   5.31
HKLF 4
END
