TITL 2_expF_1_3_expS_0_9_2_c.res in P2(1)
REM Old TITL 1 in P2/n
REM SHELXT solution in P2(1): R1 0.254, Rweak 0.028, Alpha 0.134
REM <I/s>   2.494 for    6 systematic absences,  Orientation as input
REM Formula found by SHELXT:  C15 N5 O2

CELL  0.71073   7.0400   9.2900  11.5500   90.000   97.870   90.000
ZERR   16.000   0.0014   0.0019   0.0023    0.000    0.030    0.000
LATT -1
SYMM -X, 1/2+Y, -Z
SFAC C N O
UNIT 16 16 16
L.S. 10
BOND
LIST 6
FMAP 2
PLAN 20
O001  3  0.08912  0.67496  0.52763 11.00000  0.05023   7.61
N002  2  0.80415  0.51819  0.29361 11.00000  0.04638   7.18
N003  2 -0.03089  0.48589  0.64175 11.00000  0.04843   7.15
N004  2  0.11875  0.57259  0.61825 11.00000  0.04728   6.82
N005  2  0.19806  0.30085  0.90852 11.00000  0.04136   6.72
O006  3  0.40087  0.74557  0.44214 11.00000  0.04704   6.65
N007  2  0.77912  0.42397  0.19319 11.00000  0.05241   6.59
C008  1  0.48717  0.59644  0.23599 11.00000  0.03366   6.36
C009  1  0.16147  0.39314  0.80844 11.00000  0.02740   6.20
C00A  1  0.07094  0.23714  0.97242 11.00000  0.03755   6.08
C00B  1  0.69735  0.69848  0.41117 11.00000  0.03146   6.06
C00C  1  0.57317  0.76301  0.46908 11.00000  0.03641   5.88
C00D  1  0.14619  0.14880  1.07181 11.00000  0.03494   5.68
C00E  1  0.29589  0.57906  0.69606 11.00000  0.03814   5.66
C00F  1 -0.00501  0.38483  0.73406 11.00000  0.03613   5.44
C00G  1 -0.10365  0.23329  0.94109 11.00000  0.03076   5.44
C00H  1  0.66212  0.60777  0.31660 11.00000  0.04316   5.43
C00I  1  0.46770  0.51162  0.13949 11.00000  0.03714   5.35
C00J  1  0.58380  0.32794  0.02830 11.00000  0.02679   5.30
C00K  1  0.67121  0.85120  0.57464 11.00000  0.04313   4.92
C00L  1  0.31529  0.48949  0.78750 11.00000  0.03809   4.82
C00M  1  0.61599  0.41020  0.12053 11.00000  0.03531   4.79
HKLF 4
END
