TITL 2_expF_1_3_expS_1_3_2_b.res in Pn
REM Old TITL 1 in P2/n
REM SHELXT solution in Pn: R1 0.365, Rweak 0.008, Alpha 0.013
REM <I/s>   1.530 for  100 systematic absences,  Orientation as input
REM Formula found by SHELXT:  C12 N7 O3

CELL  0.71073   7.0400   9.2900  11.5500   90.000   97.870   90.000
ZERR   16.000   0.0014   0.0019   0.0023    0.000    0.030    0.000
LATT -1
SYMM 1/2+X, -Y, 1/2+Z
SFAC C N O
UNIT 16 16 16
L.S. 10
BOND
LIST 6
FMAP 2
PLAN 20
O001  3  0.44223  0.51593  0.45842 11.00000  0.11159   7.68
O002  3  0.33525  1.17170  0.27697 11.00000  0.07642   7.52
N003  2  0.22062  0.98826  0.39429 11.00000  0.07975   7.37
N004  2  0.53875  1.07624  0.44706 11.00000  0.07994   7.07
N005  2  0.41993  0.89006  0.56866 11.00000  0.07285   6.86
N006  2  0.66008  0.32407  0.72301 11.00000  0.07021   6.76
C007  1  0.64087  0.41410  0.63178 11.00000  0.06550   6.64
N008  2  0.76635  0.60438  0.51681 11.00000  0.07354   6.64
N009  2  0.44875  0.80431  0.66303 11.00000  0.07290   6.56
N00A  2  0.85490  0.75743  0.30866 11.00000  0.07351   6.52
C00B  1  0.67799  0.76830  0.28091 11.00000  0.07805   6.46
C00C  1  0.55365  0.70032  0.33977 11.00000  0.06529   6.37
C00D  1  0.45513  0.41649  0.55935 11.00000  0.07617   6.26
C00E  1  0.24205  0.89332  0.48589 11.00000  0.07082   6.13
C00F  1  0.77933  0.51350  0.61042 11.00000  0.07178   5.70
C00G  1  0.40911  0.64674  0.82404 11.00000  0.07794   5.61
C00H  1  0.55958  0.98720  0.54075 11.00000  0.06149   5.31
O00I  3  0.14510  0.74719  0.69041 11.00000  0.08034   5.24
C00J  1  0.32481  0.73974  0.72095 11.00000  0.06248   5.23
C00K  1  0.36945  1.07868  0.37195 11.00000  0.07022   5.11
C00L  1  0.59937  0.84966  0.17596 11.00000  0.08118   4.94
C00M  1  0.58687  0.60429  0.44221 11.00000  0.06481   4.94
HKLF 4
END
