TITL 2_expF_1_3_expS_0_9_2_a.res in P2(1)/n
REM Old TITL 1 in P2/n
REM SHELXT solution in P2(1)/n: R1 0.276, Rweak 0.031, Alpha 0.098
REM <I/s>   1.354 for  106 systematic absences,  Orientation as input
REM Formula found by SHELXT:  C10 O

CELL  0.71073   7.0400   9.2900  11.5500   90.000   97.870   90.000
ZERR   16.000   0.0014   0.0019   0.0023    0.000    0.030    0.000
LATT  1
SYMM 1/2-X, 1/2+Y, 1/2-Z
SFAC C N O
UNIT 16 16 16
L.S. 10
BOND
LIST 6
FMAP 2
PLAN 20
C001  1  0.55181  0.44847  0.34006 11.00000  0.03111   6.40
C002  1  0.66291  0.07751  0.72144 11.00000  0.02708   6.40
C003  1  0.78197  0.26229  0.60943 11.00000  0.03598   6.18
C004  1  0.67869  0.51308  0.27824 11.00000  0.03339   6.08
O005  3  0.85109  0.50524  0.30822 11.00000  0.05135   6.06
C006  1  0.46319  0.17162  0.55561 11.00000  0.03917   5.88
C007  1  0.75951  0.35727  0.51463 11.00000  0.03494   5.86
C008  1  0.43902  0.26503  0.45968 11.00000  0.03794   5.81
C009  1  0.63332  0.16903  0.63016 11.00000  0.03566   5.80
C00A  1  0.58777  0.35648  0.43816 11.00000  0.03272   5.77
C00B  1  0.59068  0.60041  0.17664 11.00000  0.03919   5.34
HKLF 4
END
