TITL 2_expF_1_4_expS_1_3_2_a.res in P2(1)/n
REM Old TITL 1 in P2/n
REM SHELXT solution in P2(1)/n: R1 0.404, Rweak 0.014, Alpha 0.019
REM <I/s>   1.758 for  106 systematic absences,  Orientation as input
REM Formula found by SHELXT:  C9 N O

CELL  0.71073   7.0400   9.2900  11.5500   90.000   97.870   90.000
ZERR   16.000   0.0014   0.0019   0.0023    0.000    0.030    0.000
LATT  1
SYMM 1/2-X, 1/2+Y, 1/2-Z
SFAC C N O
UNIT 16 16 16
L.S. 10
BOND
LIST 6
FMAP 2
PLAN 20
N001  2  0.66402  0.07627  0.72433 11.00000  0.06727   6.72
C002  1  0.45844  0.17038  0.55957 11.00000  0.07293   6.24
C003  1  0.55438  0.44923  0.33914 11.00000  0.06402   6.22
C004  1  0.78409  0.26428  0.60848 11.00000  0.06985   6.22
C005  1  0.58740  0.35752  0.43595 11.00000  0.06368   6.11
C006  1  0.76380  0.35956  0.51376 11.00000  0.06826   5.88
C007  1  0.67570  0.51126  0.28171 11.00000  0.07250   5.79
C008  1  0.63216  0.17006  0.63085 11.00000  0.06730   5.78
C009  1  0.44104  0.26647  0.45790 11.00000  0.07108   5.76
O00A  3  0.85606  0.50111  0.30994 11.00000  0.08193   5.68
C00B  1  0.58951  0.59639  0.17506 11.00000  0.07783   5.23
HKLF 4
END
