TITL 2_expF_1_3_expS_0_7_2_a.res in P2(1)/n
REM Old TITL 1 in P2/n
REM SHELXT solution in P2(1)/n: R1 0.276, Rweak 0.092, Alpha 0.131
REM <I/s>   1.138 for  106 systematic absences,  Orientation as input
REM Formula found by SHELXT:  C10 O

CELL  0.71073   7.0400   9.2900  11.5500   90.000   97.870   90.000
ZERR   16.000   0.0014   0.0019   0.0023    0.000    0.030    0.000
LATT  1
SYMM 1/2-X, 1/2+Y, 1/2-Z
SFAC C N O
UNIT 16 16 16
L.S. 10
BOND
LIST 6
FMAP 2
PLAN 20
O001  3  0.85129  0.50489  0.30828 11.00000  0.03790   6.50
C002  1  0.55024  0.44879  0.33921 11.00000  0.02115   6.39
C003  1  0.66449  0.07632  0.72204 11.00000  0.02053   6.23
C004  1  0.67838  0.51318  0.27843 11.00000  0.02365   6.16
C005  1  0.77902  0.26360  0.60992 11.00000  0.02626   6.02
C006  1  0.58821  0.35758  0.43805 11.00000  0.02612   5.97
C007  1  0.75913  0.35703  0.51462 11.00000  0.02441   5.84
C008  1  0.63419  0.16966  0.63009 11.00000  0.02585   5.84
C009  1  0.45828  0.17111  0.55439 11.00000  0.02969   5.79
C00A  1  0.43855  0.26421  0.45908 11.00000  0.02701   5.74
C00B  1  0.59332  0.60040  0.17703 11.00000  0.02739   5.55
HKLF 4
END
