TITL 2_expF_0_6_expS_1_1_2_a.res in Pn
REM Old TITL 1 in P2/n
REM SHELXT solution in Pn: R1 0.256, Rweak 0.213, Alpha 0.166
REM <I/s>   0.931 for  100 systematic absences,  Orientation as input
REM Formula found by SHELXT:  C10 N5 O4

CELL  0.71073   7.0400   9.2900  11.5500   90.000   97.870   90.000
ZERR   16.000   0.0014   0.0019   0.0023    0.000    0.030    0.000
LATT -1
SYMM 1/2+X, -Y, 1/2+Z
SFAC C N O
UNIT 16 16 16
L.S. 10
BOND
LIST 6
FMAP 2
PLAN 20
N001  2  0.36390  0.57807  0.37932 11.00000  0.00010  10.19
O002  3  0.14891  0.24807  0.70292 11.00000  0.01995   9.88
O003  3  0.24287  0.39324  0.49617 11.00000  0.00257   8.87
N004  2  0.67575  0.26532  0.28889 11.00000  0.00010   8.80
O005  3  0.59553  0.11778  0.44737 11.00000  0.03052   8.20
O006  3  0.45068  0.30451  0.67413 11.00000  0.04880   7.20
N007  2  0.79046  0.00975  0.62778 11.00000  0.02774   7.02
N008  2  0.39775  0.15025  0.81908 11.00000  0.02851   7.01
N009  2  0.56231  0.48786  0.54380 11.00000  0.01172   6.73
C00A  1  0.65985 -0.17569  0.73617 11.00000  0.01934   6.50
C00B  1  0.54269  0.58922  0.46381 11.00000  0.05074   6.36
C00C  1  0.55649  0.20295  0.35340 11.00000  0.00442   6.08
C00D  1  0.33550  0.67697  0.28984 11.00000  0.00010   5.69
C00E  1  0.22844  0.48290  0.40203 11.00000  0.01366   5.47
C00F  1  0.44461  0.01947  0.45301 11.00000  0.03061   5.42
C00G  1  0.58209  0.35038  0.18092 11.00000  0.00456   4.70
C00H  1  0.46064 -0.07311  0.56636 11.00000  0.01161   4.63
C00I  1  0.85109  0.26257  0.32315 11.00000  0.01108   4.05
C00J  1  0.41198  0.39808  0.57016 11.00000  0.01651   3.09
HKLF 4
END
