TITL 2_expF_0_8_expS_1_3_2_b.res in P2(1)
REM Old TITL 1 in P2/n
REM SHELXT solution in P2(1): R1 0.245, Rweak 0.052, Alpha 0.128
REM <I/s>   2.131 for    6 systematic absences,  Orientation as input
REM Formula found by SHELXT:  C17 N O4

CELL  0.71073   7.0400   9.2900  11.5500   90.000   97.870   90.000
ZERR   16.000   0.0014   0.0019   0.0023    0.000    0.030    0.000
LATT -1
SYMM -X, 1/2+Y, -Z
SFAC C N O
UNIT 16 16 16
L.S. 10
BOND
LIST 6
FMAP 2
PLAN 20
O001  3  0.29170  0.56640  0.69320 11.00000  0.04915   7.83
C002  1  0.61572  0.41266  0.12402 11.00000  0.02857   6.89
O003  3  0.58759  0.32518  0.02753 11.00000  0.04640   6.89
N004  2  0.16387  0.37945  0.81030 11.00000  0.02707   6.87
O005  3 -0.10005  0.23243  0.94156 11.00000  0.03251   6.72
C006  1  0.20353  0.30102  0.91132 11.00000  0.02451   6.46
C007  1  0.47179  0.51168  0.13747 11.00000  0.03319   6.20
C008  1  0.57032  0.74953  0.47408 11.00000  0.03114   5.94
C009  1  0.81001  0.49809  0.28880 11.00000  0.03475   5.70
C00A  1  0.69246  0.69728  0.40789 11.00000  0.02417   5.69
C00B  1  0.07178  0.22559  0.96739 11.00000  0.02709   5.63
C00C  1  0.48114  0.59999  0.23605 11.00000  0.03496   5.53
C00D  1 -0.00234  0.38607  0.73536 11.00000  0.02549   5.43
C00E  1 -0.03209  0.48264  0.64227 11.00000  0.03247   5.36
C00F  1  0.65860  0.85150  0.57369 11.00000  0.04092   5.19
O00G  3  0.39577  0.74158  0.44177 11.00000  0.05920   5.18
C00H  1  0.08639  0.67169  0.52902 11.00000  0.02370   5.04
C00I  1  0.30919  0.47008  0.79206 11.00000  0.02843   4.98
C00J  1  0.15768  0.14850  1.07293 11.00000  0.02894   4.90
C00K  1  0.65962  0.58862  0.31503 11.00000  0.04302   4.62
C00L  1  0.11962  0.57439  0.61512 11.00000  0.03263   4.45
C00M  1  0.78514  0.40363  0.19653 11.00000  0.04294   3.39
HKLF 4
END
