TITL 2_expF_0_5_expS_0_9_2_a.res in Pn
REM Old TITL 1 in P2/n
REM SHELXT solution in Pn: R1 0.294, Rweak 0.457, Alpha 0.222
REM <I/s>   0.895 for   97 systematic absences,  Orientation as input
REM Formula found by SHELXT:  C5 N3 O10

CELL  0.71073   7.0400   9.2900  11.5500   90.000   97.870   90.000
ZERR   16.000   0.0014   0.0019   0.0023    0.000    0.030    0.000
LATT -1
SYMM 1/2+X, -Y, 1/2+Z
SFAC C N O
UNIT 16 16 16
L.S. 10
BOND
LIST 6
FMAP 2
PLAN 20
O001  3  0.11279  0.69954  0.22441 11.00000  0.00010   9.22
O002  3  0.97056  0.65872  0.70016 11.00000  0.00189   8.80
O003  3  0.69877  0.73871  0.57338 11.00000  0.01070   8.63
O004  3  0.32080  0.60978  0.40115 11.00000  0.00010   8.17
C005  1  0.20858  0.41487  0.51491 11.00000  0.00010   8.16
O006  3  0.46601  0.10186  0.94686 11.00000  0.00010   7.95
C007  1  0.88126  0.74943  0.61185 11.00000  0.02471   7.65
N008  2  0.34932  0.51184  0.49780 11.00000  0.00010   7.38
O009  3  0.60831 -0.06356  0.82927 11.00000  0.00162   7.26
N00A  2  0.02944  0.52512  0.33954 11.00000  0.00010   6.95
O00B  3  0.24144  0.32832  0.61079 11.00000  0.00353   6.29
N00C  2  0.41491 -0.18815  0.67596 11.00000  0.00381   5.35
O00D  3  0.41082  0.76642  0.19477 11.00000  0.00010   4.64
C00E  1  0.24396  0.75447  0.17194 11.00000  0.00010   4.04
C00F  1  0.15240  0.86170  0.05314 11.00000  0.00138   3.40
O00G  3  0.50620  0.56608  0.57063 11.00000  0.18581   3.25
O00H  3  0.26457  0.03258  0.77429 11.00000  0.10598   3.17
C00I  1  0.20588  0.07726  0.66669 11.00000  0.14206   3.05
HKLF 4
END
