TITL 2_expF_0_8_expS_1_4_2_a.res in P2(1)/n
REM Old TITL 1 in P2/n
REM SHELXT solution in P2(1)/n: R1 0.268, Rweak 0.039, Alpha 0.081
REM <I/s>   1.285 for  106 systematic absences,  Orientation as input
REM Formula found by SHELXT:  C10 O

CELL  0.71073   7.0400   9.2900  11.5500   90.000   97.870   90.000
ZERR   16.000   0.0014   0.0019   0.0023    0.000    0.030    0.000
LATT  1
SYMM 1/2-X, 1/2+Y, 1/2-Z
SFAC C N O
UNIT 16 16 16
L.S. 10
BOND
LIST 6
FMAP 2
PLAN 20
C001  1  0.55108  0.44811  0.33975 11.00000  0.02952   6.44
C002  1  0.66326  0.07677  0.72157 11.00000  0.02649   6.35
O003  3  0.85090  0.50540  0.30840 11.00000  0.04964   6.19
C004  1  0.67889  0.51274  0.27830 11.00000  0.03176   6.11
C005  1  0.78134  0.26225  0.60972 11.00000  0.03449   6.03
C006  1  0.58786  0.35692  0.43815 11.00000  0.03194   5.97
C007  1  0.63284  0.16921  0.62997 11.00000  0.03457   5.84
C008  1  0.46238  0.17045  0.55544 11.00000  0.03684   5.83
C009  1  0.76007  0.35805  0.51428 11.00000  0.03459   5.78
C00A  1  0.43894  0.26504  0.45927 11.00000  0.03649   5.54
C00B  1  0.59031  0.60003  0.17667 11.00000  0.03764   5.40
HKLF 4
END
