TITL 2_expF_1_4_expS_0_8_2_b.res in Pn
REM Old TITL 1 in P2/n
REM SHELXT solution in Pn: R1 0.230, Rweak 0.033, Alpha 0.020
REM <I/s>   1.231 for  100 systematic absences,  Orientation as input
REM Formula found by SHELXT:  C11 N6 O5

CELL  0.71073   7.0400   9.2900  11.5500   90.000   97.870   90.000
ZERR   16.000   0.0014   0.0019   0.0023    0.000    0.030    0.000
LATT -1
SYMM 1/2+X, -Y, 1/2+Z
SFAC C N O
UNIT 16 16 16
L.S. 10
BOND
LIST 6
FMAP 2
PLAN 20
N001  2  0.41917  0.10458  0.56247 11.00000  0.03371  10.11
O002  3  0.22943  0.01398  0.39132 11.00000  0.03215   9.58
O003  3  0.85167  0.23914  0.30690 11.00000  0.03529   9.43
O004  3  0.33628 -0.16996  0.27516 11.00000  0.02286   8.84
O005  3  0.55043 -0.08091  0.44327 11.00000  0.05263   8.43
O006  3  0.44790  0.48447  0.45550 11.00000  0.05752   7.90
N007  2  0.63926  0.58434  0.62943 11.00000  0.04078   7.55
N008  2  0.32690  0.25279  0.72358 11.00000  0.03759   7.53
N009  2  0.45354  0.19973  0.65993 11.00000  0.03211   7.34
N00A  2  0.55905  0.30274  0.33933 11.00000  0.04060   7.17
N00B  2  0.76488  0.39098  0.51268 11.00000  0.03864   7.03
C00C  1  0.41627  0.34523  0.82236 11.00000  0.03710   6.28
C00D  1  0.68429  0.22790  0.28334 11.00000  0.02807   6.26
C00E  1  0.59880  0.14376  0.17764 11.00000  0.03281   6.19
C00F  1  0.65228  0.67935  0.71713 11.00000  0.04814   5.92
C00G  1  0.24774  0.10432  0.48291 11.00000  0.03334   5.74
C00H  1  0.37483 -0.07882  0.36946 11.00000  0.03238   5.61
C00I  1  0.47351  0.57822  0.55457 11.00000  0.03810   5.20
C00J  1  0.56700  0.01377  0.53767 11.00000  0.03058   4.69
C00K  1  0.14833  0.25114  0.68968 11.00000  0.03207   4.65
C00L  1  0.80025  0.49298  0.61287 11.00000  0.06322   4.64
C00M  1  0.59607  0.39143  0.43899 11.00000  0.03540   3.87
HKLF 4
END
