TITL 2_expF_1_5_expS_0_9_2_b.res in Pn
REM Old TITL 1 in P2/n
REM SHELXT solution in Pn: R1 0.275, Rweak 0.017, Alpha 0.008
REM <I/s>   1.503 for  100 systematic absences,  Orientation as input
REM Formula found by SHELXT:  C11 N5 O7

CELL  0.71073   7.0400   9.2900  11.5500   90.000   97.870   90.000
ZERR   16.000   0.0014   0.0019   0.0023    0.000    0.030    0.000
LATT -1
SYMM 1/2+X, -Y, 1/2+Z
SFAC C N O
UNIT 16 16 16
L.S. 10
BOND
LIST 6
FMAP 2
PLAN 20
N001  2  0.09980  0.60571  0.43435 11.00000  0.03865   9.33
C002  1  0.18901  0.75656  0.27298 11.00000  0.04022   8.50
N003  2  0.87591  1.08146  0.36805 11.00000  0.04643   8.20
O004  3  0.28436  0.51294  0.60453 11.00000  0.05132   8.15
O005  3  0.17322  0.32596  0.71792 11.00000  0.03950   8.15
O006  3 -0.02295  0.41716  0.55397 11.00000  0.06397   7.78
O007  3  1.05917  0.98748  0.53449 11.00000  0.06400   7.60
O008  3  0.65505  0.74419  0.68459 11.00000  0.04873   7.29
N009  2  0.06468  0.69962  0.33609 11.00000  0.04421   7.17
N00A  2  0.96001  0.80103  0.65693 11.00000  0.04093   6.86
N00B  2  0.84860  1.16940  0.27276 11.00000  0.04835   6.66
C00C  1  0.74296  0.89340  0.48227 11.00000  0.03856   6.37
C00D  1  0.25969  0.60298  0.51240 11.00000  0.03922   6.35
C00E  1  0.10786  0.84804  0.17619 11.00000  0.04228   6.23
C00F  1  1.05326  1.07634  0.44110 11.00000  0.04246   6.04
O00G  3  0.36286  0.75675  0.30143 11.00000  0.05307   5.94
C00H  1  0.71865  0.98693  0.38670 11.00000  0.04654   5.85
C00I  1  0.92640  0.64756  0.82381 11.00000  0.04511   5.84
C00J  1 -0.05917  0.51576  0.45467 11.00000  0.03907   5.30
C00K  1  0.83463  0.73042  0.71237 11.00000  0.03930   4.94
C00L  1  0.14038  0.41570  0.62861 11.00000  0.04036   4.49
C00M  1  0.92572  0.89365  0.55729 11.00000  0.04271   4.27
O00N  3  0.35014  0.66722  0.50006 11.00000  0.22248   3.40
HKLF 4
END
