TITL 2_expF_1_4_expS_0_6_2_a.res in P2(1)/n
REM Old TITL 1 in P2/n
REM SHELXT solution in P2(1)/n: R1 0.282, Rweak 0.120, Alpha 0.169
REM <I/s>   1.072 for  106 systematic absences,  Orientation as input
REM Formula found by SHELXT:  C9 N O

CELL  0.71073   7.0400   9.2900  11.5500   90.000   97.870   90.000
ZERR   16.000   0.0014   0.0019   0.0023    0.000    0.030    0.000
LATT  1
SYMM 1/2-X, 1/2+Y, 1/2-Z
SFAC C N O
UNIT 16 16 16
L.S. 10
BOND
LIST 6
FMAP 2
PLAN 20
N001  2  0.44834  0.55112  0.66112 11.00000  0.02405   6.63
O002  3  0.14951  0.49363  0.69146 11.00000  0.02974   6.46
C003  1  0.32143  0.48765  0.72129 11.00000  0.01781   6.14
C004  1  0.33440  0.92512  0.27820 11.00000  0.01490   6.06
C005  1  0.41115  0.64232  0.56180 11.00000  0.01943   6.04
C006  1  0.36757  0.82990  0.37038 11.00000  0.02057   5.87
C007  1  0.21972  0.73582  0.38931 11.00000  0.01983   5.83
C008  1  0.23999  0.64228  0.48488 11.00000  0.02010   5.50
C009  1  0.40864  0.39941  0.82306 11.00000  0.02029   5.47
C00A  1  0.54105  0.82861  0.44550 11.00000  0.02376   5.44
C00B  1  0.56127  0.73563  0.54063 11.00000  0.02182   5.42
HKLF 4
END
