TITL 2_expF_1_3_expS_0_9_2_b.res in Pn
REM Old TITL 1 in P2/n
REM SHELXT solution in Pn: R1 0.245, Rweak 0.027, Alpha 0.016
REM <I/s>   1.285 for  100 systematic absences,  Orientation as input
REM Formula found by SHELXT:  C13 N5 O4

CELL  0.71073   7.0400   9.2900  11.5500   90.000   97.870   90.000
ZERR   16.000   0.0014   0.0019   0.0023    0.000    0.030    0.000
LATT -1
SYMM 1/2+X, -Y, 1/2+Z
SFAC C N O
UNIT 16 16 16
L.S. 10
BOND
LIST 6
FMAP 2
PLAN 20
O001  3  0.78416  0.98940  0.59960 11.00000  0.04572   8.63
N002  2  0.58843  0.89459  0.43838 11.00000  0.03497   7.96
O003  3  0.66651  1.16908  0.72092 11.00000  0.02844   7.64
O004  3  0.14998  0.76159  0.68749 11.00000  0.03282   7.07
N005  2  0.54741  0.80371  0.33830 11.00000  0.03519   7.04
N006  2  0.56227  0.51620  0.53608 11.00000  0.03639   7.03
N007  2  0.37510  0.41588  0.36434 11.00000  0.04151   6.97
C008  1  0.67551  0.74427  0.27344 11.00000  0.03496   6.84
N009  2  0.46465  1.08020  0.55111 11.00000  0.03802   6.51
C00A  1  0.76189  0.89415  0.51285 11.00000  0.03152   6.12
C00B  1  0.59245  0.65323  0.17704 11.00000  0.04013   5.52
C00C  1  0.44282  0.70126  0.65788 11.00000  0.03086   5.27
C00D  1  0.24602  0.60626  0.48338 11.00000  0.03549   5.24
C00E  1  0.34444  0.31953  0.27892 11.00000  0.04687   5.05
C00F  1  0.53817  0.42331  0.43923 11.00000  0.05330   5.04
C00G  1  0.32077  0.76854  0.71547 11.00000  0.03177   4.96
C00H  1  0.40936  0.85520  0.82296 11.00000  0.03980   4.88
O00I  3  0.85002  0.75344  0.30288 11.00000  0.06773   4.81
C00J  1  0.44260  0.98982  0.45364 11.00000  0.04519   4.37
C00K  1  0.64112  1.07902  0.62580 11.00000  0.03390   4.00
C00L  1  0.41341  0.60721  0.56301 11.00000  0.03941   3.41
C00M  1  0.22053  0.51546  0.37879 11.00000  0.04128   3.32
HKLF 4
END
