TITL 2_expF_1_3_expS_0_6_2_b.res in Pn
REM Old TITL 1 in P2/n
REM SHELXT solution in Pn: R1 0.237, Rweak 0.140, Alpha 0.114
REM <I/s>   0.990 for  100 systematic absences,  Orientation as input
REM Formula found by SHELXT:  C14 N3 O4

CELL  0.71073   7.0400   9.2900  11.5500   90.000   97.870   90.000
ZERR   16.000   0.0014   0.0019   0.0023    0.000    0.030    0.000
LATT -1
SYMM 1/2+X, -Y, 1/2+Z
SFAC C N O
UNIT 16 16 16
L.S. 10
BOND
LIST 6
FMAP 2
PLAN 20
N001  2  0.32458  0.26448  0.72575 11.00000  0.00010  10.04
O002  3  0.56612  0.02579  0.54665 11.00000  0.02745   8.45
O003  3  0.33652 -0.17038  0.28443 11.00000  0.01722   7.85
O004  3  0.59410  0.15722  0.17786 11.00000  0.02865   7.44
O005  3  0.14856  0.25525  0.69533 11.00000  0.02605   6.96
N006  2  0.22296  0.01521  0.39330 11.00000  0.01740   6.89
N007  2  0.44730  0.19854  0.66523 11.00000  0.01442   6.72
C008  1  0.40341  0.11010  0.56429 11.00000  0.02118   6.51
C009  1  0.25446  0.10772  0.48936 11.00000  0.02091   6.39
C00A  1  0.54322 -0.08143  0.46095 11.00000  0.02411   6.28
C00B  1  0.63964  0.57408  0.64230 11.00000  0.01660   5.94
C00C  1  0.54447  0.30055  0.34188 11.00000  0.03154   5.88
C00D  1  0.37270 -0.08952  0.38176 11.00000  0.02231   5.79
C00E  1  0.85144  0.24707  0.31473 11.00000  0.01595   5.72
C00F  1  0.78911  0.48863  0.61337 11.00000  0.03248   5.63
C00G  1  0.57808  0.39270  0.43992 11.00000  0.01719   5.35
C00H  1  0.46033  0.57701  0.56762 11.00000  0.01807   5.23
C00I  1  0.77139  0.39323  0.51961 11.00000  0.01601   5.22
C00J  1  0.66138  0.68097  0.73222 11.00000  0.03825   4.61
C00K  1  0.40871  0.36418  0.82214 11.00000  0.03508   4.10
C00L  1  0.44495  0.50058  0.46613 11.00000  0.02453   3.29
HKLF 4
END
