TITL 2_expF_0_9_expS_0_9_2_b.res in Pn
REM Old TITL 1 in P2/n
REM SHELXT solution in Pn: R1 0.242, Rweak 0.116, Alpha 0.072
REM <I/s>   1.008 for  100 systematic absences,  Orientation as input
REM Formula found by SHELXT:  C12 N2 O6

CELL  0.71073   7.0400   9.2900  11.5500   90.000   97.870   90.000
ZERR   16.000   0.0014   0.0019   0.0023    0.000    0.030    0.000
LATT -1
SYMM 1/2+X, -Y, 1/2+Z
SFAC C N O
UNIT 16 16 16
L.S. 10
BOND
LIST 6
FMAP 2
PLAN 20
C001  1  0.18689  0.23628  0.23135 11.00000  0.00010   9.54
O002  3  0.73010  0.00778  0.33793 11.00000  0.06143   8.38
O003  3  0.73925  0.10938  0.43076 11.00000  0.02102   8.10
O004  3  0.91653  0.35014  0.77415 11.00000  0.00957   7.81
O005  3  0.96638  0.20089  0.61224 11.00000  0.02818   7.39
N006  2  0.86568 -0.07543  0.32021 11.00000  0.01970   6.96
N007  2  0.65710  0.25658  0.64468 11.00000  0.01547   6.84
O008  3  0.17082  0.67846  0.67236 11.00000  0.02514   6.59
C009  1  0.92527  0.11270  0.51498 11.00000  0.01933   6.48
C00A  1 -0.06076  0.48235  0.41240 11.00000  0.01793   5.84
O00B  3  0.36288  0.24286  0.26336 11.00000  0.03099   5.44
C00C  1  1.05400 -0.07770  0.39387 11.00000  0.02273   5.36
C00D  1 -0.02255  0.58019  0.50380 11.00000  0.02155   5.32
C00E  1  0.07063  0.30496  0.29199 11.00000  0.02079   5.14
C00F  1  0.84333 -0.16739  0.22585 11.00000  0.02289   4.87
C00G  1  0.10262  0.39997  0.39182 11.00000  0.02170   4.58
C00H  1  1.06076  0.01215  0.49240 11.00000  0.01964   4.56
C00I  1  0.12505  0.58812  0.58114 11.00000  0.02178   3.73
C00J  1  0.25831  0.39152  0.45972 11.00000  0.04255   3.45
C00K  1  0.28788  0.48486  0.55908 11.00000  0.00946   3.30
HKLF 4
END
