TITL 2_expF_1_1_expS_0_7_2_b.res in P2(1)
REM Old TITL 1 in P2/n
REM SHELXT solution in P2(1): R1 0.252, Rweak 0.148, Alpha 0.201
REM <I/s>   1.839 for    6 systematic absences,  Orientation as input
REM Formula found by SHELXT:  C10 N6 O6

CELL  0.71073   7.0400   9.2900  11.5500   90.000   97.870   90.000
ZERR   16.000   0.0014   0.0019   0.0023    0.000    0.030    0.000
LATT -1
SYMM -X, 1/2+Y, -Z
SFAC C N O
UNIT 16 16 16
L.S. 10
BOND
LIST 6
FMAP 2
PLAN 20
N001  2  0.87957  0.57348  0.37986 11.00000  0.01953   9.64
C002  1  0.42927  0.75131  0.52648 11.00000  0.00803   9.49
O003  3  0.92156  0.68604  0.46543 11.00000  0.02864   8.90
O004  3  0.29678  0.69298  0.58757 11.00000  0.03563   8.84
N005  2  0.83668  0.38617  0.19309 11.00000  0.00522   8.57
O006  3  0.84661  0.14627 -0.07404 11.00000  0.02147   8.27
N007  2  0.53165  0.51138  0.85687 11.00000  0.02383   7.34
O008  3  0.61010  0.75043  0.56149 11.00000  0.01742   7.30
O009  3  1.08949  0.23912  0.05555 11.00000  0.02434   7.21
N00A  2  0.18931  0.49473  0.70609 11.00000  0.02019   7.02
N00B  2  0.23069  0.40488  0.80899 11.00000  0.04455   6.76
N00C  2  1.00277  0.39659  0.26820 11.00000  0.02137   6.62
C00D  1  0.80421  0.29565  0.09162 11.00000  0.00711   6.18
C00E  1  0.69682  0.56943  0.30110 11.00000  0.00512   6.14
C00F  1  0.51178  0.60941  0.76204 11.00000  0.01209   6.13
C00G  1  1.03282  0.48352  0.36341 11.00000  0.01902   5.91
C00H  1  0.68673  0.46714  0.21224 11.00000  0.01117   5.78
C00I  1  0.92899  0.22335  0.03199 11.00000  0.01941   5.58
O00J  3  0.40816  0.33297  0.97816 11.00000  0.01746   5.24
C00K  1  0.34356  0.60092  0.67835 11.00000  0.03125   5.07
C00L  1  0.33799  0.85373  0.42695 11.00000  0.03846   4.39
C00M  1  0.38938  0.41128  0.87918 11.00000  0.01487   4.25
HKLF 4
END
