TITL 2_expF_1_5_expS_1_5_2_c.res in P2(1)
REM Old TITL 1 in P2/n
REM SHELXT solution in P2(1): R1 0.651, Rweak 0.031, Alpha 0.145
REM <I/s>  11.879 for    6 systematic absences,  Orientation as input
REM Formula found by SHELXT:  C32 N7 O2

CELL  0.71073   7.0400   9.2900  11.5500   90.000   97.870   90.000
ZERR   16.000   0.0014   0.0019   0.0023    0.000    0.030    0.000
LATT -1
SYMM -X, 1/2+Y, -Z
SFAC C N O
UNIT 16 16 16
L.S. 10
BOND
LIST 6
FMAP 2
PLAN 20
O001  3  1.03008  0.77446  0.35520 11.00000  0.08879   7.67
O002  3  0.59209  0.10580  0.02629 11.00000  0.07833   7.44
N003  2  0.65938  0.39062  0.31382 11.00000  0.07961   7.36
N004  2  0.84218  0.68222  0.18241 11.00000  0.08538   7.33
N005  2  0.90761  0.95664  0.47181 11.00000  0.06690   7.19
C006  1  0.80260  0.58365  0.09031 11.00000  0.06564   6.85
C007  1  0.62343  0.20263  0.11999 11.00000  0.07363   6.84
N008  2  0.77891  0.20543  0.19492 11.00000  0.08963   6.83
C009  1  0.57058  0.55029  0.46783 11.00000  0.07574   6.80
C00A  1  0.69598  0.48050  0.40946 11.00000  0.06474   6.72
N00B  2  0.46861  0.29891  0.14110 11.00000  0.07737   6.62
C00C  1  0.92798  0.51643  0.03166 11.00000  0.07158   6.51
C00D  1  0.50080  0.39968  0.23643 11.00000  0.07401   6.41
C00E  1  0.39483  0.54129  0.44409 11.00000  0.07015   6.39
C00F  1  0.80961  0.29741  0.28914 11.00000  0.07265   6.37
C00G  1  1.00095  0.68002  0.26662 11.00000  0.07565   6.05
C00H  1  0.88145  0.86216  0.38084 11.00000  0.07503   6.04
C00I  1  1.10410  0.52896  0.05522 11.00000  0.06941   5.80
C00J  1  0.71881  0.86155  0.30624 11.00000  0.07430   5.37
C00K  1  0.96996  0.41254 -0.12838 11.00000  0.19355   5.04
C00L  1  1.10223  0.04336  0.29186 11.00000  0.31474   5.03
C00M  1  0.69014  0.77150  0.20940 11.00000  0.06792   4.93
C00N  1  0.32132  0.65165  0.17841 11.00000  0.17693   4.82
C00O  1  0.90294  0.25754 -0.10946 11.00000  0.31336   4.66
C00P  1  0.16044  0.32244  0.02568 11.00000  0.15279   4.64
C00Q  1  0.18140  0.42428  0.29458 11.00000  0.21592   4.62
C00R  1  0.41815  0.85736  0.36079 11.00000  0.21766   4.44
C00S  1  0.34713  0.38467  0.00063 11.00000  0.25072   4.29
C00T  1  0.71086  0.60980  0.47952 11.00000  0.19460   3.99
N00U  2  0.80096  0.46955  0.03599 11.00000  0.19086   3.61
C00V  1  0.65574  0.63203  0.57131 11.00000  0.08272   3.58
C00W  1  0.83980  0.43211 -0.07468 11.00000  0.08197   3.54
C00X  1  0.38721  0.48900  0.23693 11.00000  0.16552   3.50
C00Y  1  0.48532  0.66056  0.64721 11.00000  0.17969   3.43
N00Z  2  0.89067  0.64157  0.50053 11.00000  0.18294   3.35
C010  1  0.61162  0.77880  0.34681 11.00000  0.18395   3.33
C011  1  0.86693  0.27743  0.01125 11.00000  0.23757   3.22
C012  1  0.46535  0.88079  0.16578 11.00000  0.16328   3.17
C013  1  0.83610  0.05666  0.30482 11.00000  0.20798   3.15
C014  1  0.91404  0.12311  0.15872 11.00000  0.16048   3.10
C015  1  0.66057  0.78049  0.49678 11.00000  0.15378   3.09
HKLF 4
END
