TITL 2_expF_1_5_expS_1_1_2_b.res in Pn
REM Old TITL 1 in P2/n
REM SHELXT solution in Pn: R1 0.354, Rweak 0.010, Alpha 0.006
REM <I/s>   1.481 for  100 systematic absences,  Orientation as input
REM Formula found by SHELXT:  C14 N6 O3

CELL  0.71073   7.0400   9.2900  11.5500   90.000   97.870   90.000
ZERR   16.000   0.0014   0.0019   0.0023    0.000    0.030    0.000
LATT -1
SYMM 1/2+X, -Y, 1/2+Z
SFAC C N O
UNIT 16 16 16
L.S. 10
BOND
LIST 6
FMAP 2
PLAN 20
N001  2  0.91193  0.89012  0.56243 11.00000  0.06038   7.13
N002  2  0.94876  0.80040  0.66129 11.00000  0.06512   6.75
N003  2  0.15807  0.32141  0.72061 11.00000  0.06572   6.74
N004  2  0.71818  0.98653  0.39283 11.00000  0.06595   6.71
N005  2  0.83338  1.17127  0.27692 11.00000  0.04961   6.57
N006  2 -0.06013  0.51390  0.45880 11.00000  0.07507   6.54
C007  1  0.13563  0.41625  0.62748 11.00000  0.06101   6.42
C008  1  0.82156  0.73868  0.72268 11.00000  0.05870   6.35
C009  1 -0.04238  0.41925  0.55608 11.00000  0.06025   6.35
C00A  1  1.03947  1.07666  0.44306 11.00000  0.06633   6.28
C00B  1  0.90701  0.64914  0.82381 11.00000  0.06729   6.04
C00C  1  0.74153  0.89431  0.48605 11.00000  0.05766   5.97
O00D  3  0.35530  0.75841  0.30789 11.00000  0.06963   5.81
C00E  1  0.28642  0.51392  0.60876 11.00000  0.07248   5.65
C00F  1  0.05088  0.69808  0.33995 11.00000  0.05120   5.63
C00G  1  0.26619  0.60503  0.51812 11.00000  0.05747   5.60
O00H  3  0.64408  0.74697  0.69170 11.00000  0.07416   5.58
C00I  1  0.17738  0.76794  0.28354 11.00000  0.05858   5.22
C00J  1  0.08296  0.60433  0.43969 11.00000  0.06565   5.17
C00K  1  1.06013  0.98028  0.53952 11.00000  0.06425   4.96
C00L  1  0.86528  1.08192  0.36689 11.00000  0.05925   4.95
C00M  1  0.09229  0.85310  0.17619 11.00000  0.06966   4.22
O00N  3  0.61345  0.82468  0.49296 11.00000  0.48526   3.20
HKLF 4
END
