TITL 2_expF_1_5_expS_0_6_2_b.res in Pn
REM Old TITL 1 in P2/n
REM SHELXT solution in Pn: R1 0.230, Rweak 0.083, Alpha 0.072
REM <I/s>   1.062 for  100 systematic absences,  Orientation as input
REM Formula found by SHELXT:  C14 N4 O3

CELL  0.71073   7.0400   9.2900  11.5500   90.000   97.870   90.000
ZERR   16.000   0.0014   0.0019   0.0023    0.000    0.030    0.000
LATT -1
SYMM 1/2+X, -Y, 1/2+Z
SFAC C N O
UNIT 16 16 16
L.S. 10
BOND
LIST 6
FMAP 2
PLAN 20
O001  3  0.18689  0.74067  0.68997 11.00000  0.00660  10.40
N002  2  0.40388  1.07966  0.36385 11.00000  0.03129   8.46
O003  3  0.58751  0.69650  0.33664 11.00000  0.03621   7.98
N004  2  0.62313  0.60876  0.44088 11.00000  0.02662   7.74
O005  3  0.69945  0.32627  0.72210 11.00000  0.03322   7.58
N006  2  0.28595  0.89041  0.48927 11.00000  0.03077   7.12
N007  2  0.25245  0.98635  0.38805 11.00000  0.04489   6.65
C008  1  0.71512  0.75067  0.27745 11.00000  0.02992   6.29
C009  1  0.36191  0.72580  0.71768 11.00000  0.01704   5.94
C00A  1  0.63670  0.84768  0.17695 11.00000  0.02860   5.90
C00B  1  0.47583  0.51620  0.45627 11.00000  0.02383   5.87
C00C  1  0.58242  1.07517  0.44096 11.00000  0.03532   5.79
C00D  1  0.50505  0.41769  0.55405 11.00000  0.02142   5.74
C00E  1  0.81311  0.51424  0.60909 11.00000  0.02130   5.68
C00F  1  0.45224  0.64484  0.82305 11.00000  0.02522   5.49
C00G  1  0.60000  0.98844  0.53779 11.00000  0.02958   5.39
C00H  1  0.48191  0.80100  0.65594 11.00000  0.02544   5.37
C00I  1  0.37163  1.17322  0.27671 11.00000  0.02845   5.28
C00J  1  0.80503  0.60660  0.52179 11.00000  0.02899   4.80
C00K  1  0.44372  0.89332  0.56816 11.00000  0.03420   4.50
C00L  1  0.66875  0.41521  0.62622 11.00000  0.02917   3.62
HKLF 4
END
