TITL 2_expF_1_2_expS_1_3_2_b.res in Pn
REM Old TITL 1 in P2/n
REM SHELXT solution in Pn: R1 0.350, Rweak 0.012, Alpha 0.007
REM <I/s>   1.498 for  100 systematic absences,  Orientation as input
REM Formula found by SHELXT:  C17 N2 O3

CELL  0.71073   7.0400   9.2900  11.5500   90.000   97.870   90.000
ZERR   16.000   0.0014   0.0019   0.0023    0.000    0.030    0.000
LATT -1
SYMM 1/2+X, -Y, 1/2+Z
SFAC C N O
UNIT 16 16 16
L.S. 10
BOND
LIST 6
FMAP 2
PLAN 20
O001  3  0.33942  0.32543  0.27937 11.00000  0.05546   7.54
C002  1  0.31763  0.75573  0.72187 11.00000  0.04749   7.41
N003  2  0.54441  0.41869  0.44101 11.00000  0.06904   7.16
N004  2  0.41599  0.60547  0.56305 11.00000  0.05924   6.96
C005  1  0.63369  1.08346  0.62811 11.00000  0.04590   6.41
C006  1  0.78666  0.98713  0.61214 11.00000  0.05368   6.38
C007  1  0.45013  0.70141  0.65993 11.00000  0.04448   6.38
C008  1  0.56899  0.52112  0.54269 11.00000  0.05784   6.35
C009  1  0.22576  0.51597  0.39352 11.00000  0.05070   6.35
C00A  1  0.55861  0.80696  0.33929 11.00000  0.04413   6.24
O00B  3  0.85480  0.74069  0.30743 11.00000  0.05801   6.16
C00C  1  0.76292  0.89122  0.51490 11.00000  0.04824   6.11
C00D  1  0.66230  1.17170  0.72378 11.00000  0.04305   5.96
C00E  1  0.58580  0.65066  0.17627 11.00000  0.06240   5.96
C00F  1  0.24464  0.60539  0.48498 11.00000  0.05005   5.71
C00G  1  0.59027  0.89393  0.43868 11.00000  0.04060   5.53
C00H  1  0.46839  1.07953  0.55486 11.00000  0.04607   5.52
O00I  3  0.14520  0.75229  0.69147 11.00000  0.06594   5.50
C00J  1  0.45016  0.98960  0.46325 11.00000  0.04793   5.17
C00K  1  0.37067  0.41832  0.36935 11.00000  0.05385   5.13
C00L  1  0.40607  0.84783  0.82373 11.00000  0.05122   4.87
C00M  1  0.67697  0.73231  0.28374 11.00000  0.05159   4.09
HKLF 4
END
