TITL 2_expF_0_5_expS_1_3_2_a.res in Pn
REM Old TITL 1 in P2/n
REM SHELXT solution in Pn: R1 0.242, Rweak 0.218, Alpha 0.107
REM <I/s>   0.948 for  100 systematic absences,  Orientation as input
REM Formula found by SHELXT:  C10 N4 O7

CELL  0.71073   7.0400   9.2900  11.5500   90.000   97.870   90.000
ZERR   16.000   0.0014   0.0019   0.0023    0.000    0.030    0.000
LATT -1
SYMM 1/2+X, -Y, 1/2+Z
SFAC C N O
UNIT 16 16 16
L.S. 10
BOND
LIST 6
FMAP 2
PLAN 20
O001  3  0.74631  0.89402  0.48908 11.00000  0.00010  11.31
O002  3  0.35447  0.76096  0.31172 11.00000  0.00686   8.39
O003  3  0.84811  1.16862  0.28145 11.00000  0.00010   8.12
O004  3  0.90436  0.65205  0.82312 11.00000  0.00893   7.97
O005  3 -0.04235  0.41994  0.55309 11.00000  0.00718   7.94
C006  1  0.19179  0.76377  0.28186 11.00000  0.00793   7.72
C007  1  0.87028  1.07151  0.36870 11.00000  0.00557   7.64
N008  2 -0.05782  0.51406  0.46247 11.00000  0.02508   7.20
N009  2  0.95827  0.79811  0.66401 11.00000  0.00315   7.07
C00A  1  0.91124  0.89948  0.57113 11.00000  0.01192   6.93
N00B  2  0.27349  0.51637  0.61904 11.00000  0.01964   6.70
N00C  2  0.07177  0.69590  0.34514 11.00000  0.02754   6.69
O00D  3  0.65161  0.74688  0.69245 11.00000  0.02757   5.79
C00E  1  0.71328  0.98793  0.39535 11.00000  0.00333   5.68
C00F  1  0.83100  0.72951  0.72196 11.00000  0.01090   5.09
C00G  1  0.08991  0.61656  0.44853 11.00000  0.00632   4.97
C00H  1  0.19025  0.30928  0.71915 11.00000  0.03471   4.94
C00I  1  1.05782  0.98895  0.54363 11.00000  0.00720   4.73
C00J  1  0.08327  0.86007  0.17688 11.00000  0.02643   4.04
C00K  1  0.13510  0.41191  0.62653 11.00000  0.01292   3.85
O00L  3  0.58141  0.92591  0.32029 11.00000  0.13252   3.18
HKLF 4
END
