TITL 2_expF_0_7_expS_0_9_2_a.res in Pn
REM Old TITL 1 in P2/n
REM SHELXT solution in Pn: R1 0.246, Rweak 0.243, Alpha 0.185
REM <I/s>   0.918 for  100 systematic absences,  Orientation as input
REM Formula found by SHELXT:  C9 N2 O9

CELL  0.71073   7.0400   9.2900  11.5500   90.000   97.870   90.000
ZERR   16.000   0.0014   0.0019   0.0023    0.000    0.030    0.000
LATT -1
SYMM 1/2+X, -Y, 1/2+Z
SFAC C N O
UNIT 16 16 16
L.S. 10
BOND
LIST 6
FMAP 2
PLAN 20
O001  3  0.22300  0.98496  0.39499 11.00000  0.00010  11.78
O002  3  0.76191  0.60961  0.52002 11.00000  0.00010   9.63
O003  3  0.54453  1.08849  0.45954 11.00000  0.00987   9.22
O004  3  0.85125  0.75750  0.31092 11.00000  0.01191   8.96
O005  3  0.32876  1.16881  0.27868 11.00000  0.00010   8.86
O006  3  0.58320  0.84740  0.17610 11.00000  0.03142   8.55
N007  2  0.32534  0.73240  0.72478 11.00000  0.00010   7.88
O008  3  0.56400  0.70014  0.34758 11.00000  0.02382   7.83
O009  3  0.42081  0.88302  0.56445 11.00000  0.02433   7.67
C00A  1  0.36957  1.07711  0.37212 11.00000  0.00947   7.03
N00B  2  0.45086  0.80165  0.66672 11.00000  0.00967   6.77
C00C  1  0.56786  0.99225  0.54998 11.00000  0.00097   6.40
C00D  1  0.62564  0.41801  0.63227 11.00000  0.01054   6.26
C00E  1  0.67860  0.75523  0.27897 11.00000  0.03234   6.16
O00F  3  0.14875  0.74382  0.69204 11.00000  0.01461   5.60
C00G  1  0.65006  0.30598  0.72174 11.00000  0.02476   5.24
C00H  1  0.40148  0.64909  0.82390 11.00000  0.00116   5.18
C00I  1  0.45274  0.52368  0.47312 11.00000  0.01842   5.12
C00J  1  0.59632  0.60017  0.44157 11.00000  0.01141   5.05
C00K  1  0.45426  0.43688  0.57342 11.00000  0.01789   3.30
HKLF 4
END
