TITL 2_expF_1_2_expS_0_9_2_b.res in Pn
REM Old TITL 1 in P2/n
REM SHELXT solution in Pn: R1 0.235, Rweak 0.040, Alpha 0.054
REM <I/s>   1.198 for  100 systematic absences,  Orientation as input
REM Formula found by SHELXT:  C16 N O5

CELL  0.71073   7.0400   9.2900  11.5500   90.000   97.870   90.000
ZERR   16.000   0.0014   0.0019   0.0023    0.000    0.030    0.000
LATT -1
SYMM 1/2+X, -Y, 1/2+Z
SFAC C N O
UNIT 16 16 16
L.S. 10
BOND
LIST 6
FMAP 2
PLAN 20
O001  3  0.72449  0.51239  0.38726 11.00000  0.04318   8.32
O002  3  0.72893  0.60462  0.47861 11.00000  0.04214   7.89
O003  3  0.95074  0.69921  0.65632 11.00000  0.03934   7.78
C004  1  0.17374  0.72958  0.27966 11.00000  0.02214   6.79
N005  2  0.91117  0.84512  0.82286 11.00000  0.03383   6.73
C006  1  0.86752  0.41396  0.36700 11.00000  0.03265   6.48
O007  3  0.35605  0.74164  0.30831 11.00000  0.02931   6.36
C008  1  0.16823  1.17008  0.71751 11.00000  0.02402   6.34
C009  1  0.83839  0.32434  0.27238 11.00000  0.02198   6.19
C00A  1  0.08689  0.89617  0.43794 11.00000  0.03093   6.10
O00B  3  0.65630  0.75060  0.69276 11.00000  0.06772   6.07
C00C  1 -0.04010  1.07605  0.56039 11.00000  0.03258   5.96
C00D  1 -0.05990  0.98866  0.45660 11.00000  0.03682   5.61
C00E  1  1.03403  0.41651  0.44911 11.00000  0.03215   5.56
C00F  1  0.91336  0.61086  0.56160 11.00000  0.03108   5.39
C00G  1  1.05990  0.51650  0.53827 11.00000  0.02914   5.11
C00H  1  0.13338  1.07529  0.62871 11.00000  0.03020   4.87
C00I  1  0.81876  0.75462  0.72131 11.00000  0.03388   4.80
C00J  1  0.05338  0.80136  0.33657 11.00000  0.03430   4.75
C00K  1  0.29373  0.98627  0.60736 11.00000  0.04420   3.63
C00L  1  0.09264  0.64141  0.17714 11.00000  0.04868   3.59
C00M  1  0.24622  0.89188  0.50553 11.00000  0.03298   3.37
HKLF 4
END
