TITL 2_expF_1_3_expS_0_8_2_b.res in Pn
REM Old TITL 1 in P2/n
REM SHELXT solution in Pn: R1 0.234, Rweak 0.036, Alpha 0.035
REM <I/s>   1.171 for  100 systematic absences,  Orientation as input
REM Formula found by SHELXT:  C16 N3 O3

CELL  0.71073   7.0400   9.2900  11.5500   90.000   97.870   90.000
ZERR   16.000   0.0014   0.0019   0.0023    0.000    0.030    0.000
LATT -1
SYMM 1/2+X, -Y, 1/2+Z
SFAC C N O
UNIT 16 16 16
L.S. 10
BOND
LIST 6
FMAP 2
PLAN 20
O001  3  0.15005  0.25961  0.69225 11.00000  0.02232   8.41
O002  3  0.66986  0.67613  0.71928 11.00000  0.03486   8.31
N003  2  0.63571  0.58156  0.63622 11.00000  0.03890   7.64
N004  2  0.77415  0.48598  0.60449 11.00000  0.03484   7.22
N005  2  0.76565  0.39461  0.51588 11.00000  0.04219   7.10
C006  1  0.55214  0.29677  0.33861 11.00000  0.02661   6.40
C007  1  0.46442  0.57644  0.55485 11.00000  0.03568   6.35
C008  1  0.55623  0.01007  0.53875 11.00000  0.03298   6.15
C009  1  0.41537  0.09968  0.55642 11.00000  0.03290   6.12
C00A  1  0.41401  0.35064  0.82293 11.00000  0.03380   5.97
C00B  1  0.44873  0.19401  0.65845 11.00000  0.02816   5.84
C00C  1  0.32591  0.27035  0.71703 11.00000  0.02874   5.69
C00D  1  0.68160  0.24567  0.27565 11.00000  0.03409   5.64
C00E  1  0.43383  0.48215  0.45557 11.00000  0.03532   5.44
C00F  1  0.59105  0.38746  0.43424 11.00000  0.02723   5.02
C00G  1  0.54173 -0.08178  0.44382 11.00000  0.03993   4.89
C00H  1  0.59716  0.14994  0.17707 11.00000  0.03913   4.54
C00I  1  0.21271  0.01279  0.38371 11.00000  0.04173   4.48
C00J  1  0.24959  0.10721  0.48693 11.00000  0.03218   4.37
C00K  1  0.34730 -0.16904  0.27461 11.00000  0.03876   4.24
C00L  1  0.36657 -0.08048  0.37561 11.00000  0.03489   3.53
O00M  3  0.84995  0.26037  0.31255 11.00000  0.10501   3.51
HKLF 4
END
