TITL 2_expF_0_7_expS_0_6_2_a.res in Pn
REM Old TITL 1 in P2/n
REM SHELXT solution in Pn: R1 0.293, Rweak 0.485, Alpha 0.246
REM <I/s>   0.868 for   97 systematic absences,  Orientation as input
REM Formula found by SHELXT:  C10 N2 O5

CELL  0.71073   7.0400   9.2900  11.5500   90.000   97.870   90.000
ZERR   16.000   0.0014   0.0019   0.0023    0.000    0.030    0.000
LATT -1
SYMM 1/2+X, -Y, 1/2+Z
SFAC C N O
UNIT 16 16 16
L.S. 10
BOND
LIST 6
FMAP 2
PLAN 20
O001  3  0.32074  0.60772  0.18560 11.00000  0.00010  11.13
O002  3  0.38709  0.25715  0.93612 11.00000  0.00010  10.04
O003  3  0.40502  0.32656  0.47158 11.00000  0.00010   8.68
O004  3  0.51093  0.52249  0.34777 11.00000  0.02398   7.81
N005  2  0.68167  0.20133  0.90941 11.00000  0.00194   7.20
C006  1  0.48784  0.60637  0.25785 11.00000  0.00010   7.12
N007  2  0.79943  0.00596  0.78952 11.00000  0.00010   6.73
C008  1  0.64773  0.35600  1.07281 11.00000  0.00010   6.44
C009  1  0.42468  0.75055  0.02613 11.00000  0.00010   6.24
C00A  1  0.55526  0.27781  0.95878 11.00000  0.00010   5.63
C00B  1  0.20057  0.43562  0.29976 11.00000  0.00010   5.30
O00C  3  0.33388  0.84487 -0.07281 11.00000  0.06483   5.21
C00D  1  0.38918  0.42337  0.37008 11.00000  0.00884   4.85
C00E  1  0.27637  0.70475  0.09167 11.00000  0.00010   4.85
C00F  1  0.62451 -0.08341  0.59887 11.00000  0.00167   4.66
C00G  1  0.45255  0.01255  0.62194 11.00000  0.00370   3.96
C00H  1  0.45672  0.09261  0.72528 11.00000  0.01316   3.08
HKLF 4
END
