TITL 2_expF_0_9_expS_0_5_2_a.res in Pn
REM Old TITL 1 in P2/n
REM SHELXT solution in Pn: R1 0.282, Rweak 0.435, Alpha 0.262
REM <I/s>   0.885 for   97 systematic absences,  Orientation as input
REM Formula found by SHELXT:  C9 N5 O5

CELL  0.71073   7.0400   9.2900  11.5500   90.000   97.870   90.000
ZERR   16.000   0.0014   0.0019   0.0023    0.000    0.030    0.000
LATT -1
SYMM 1/2+X, -Y, 1/2+Z
SFAC C N O
UNIT 16 16 16
L.S. 10
BOND
LIST 6
FMAP 2
PLAN 20
O001  3  0.93571  0.28983  0.61471 11.00000  0.00850  10.63
N002  2  0.89687  0.38593  0.51059 11.00000  0.00010  10.47
C003  1  0.10441 -0.07575  0.58101 11.00000  0.00010  10.19
O004  3  0.33017  0.25269  0.26102 11.00000  0.00671   9.72
N005  2  0.15008  0.28163  0.24072 11.00000  0.00010   9.39
O006  3  0.88509  0.14889  0.77194 11.00000  0.00010   8.99
O007  3  0.70706  0.48154  0.34583 11.00000  0.00010   8.52
N008  2  1.02193  0.57922  0.40174 11.00000  0.00219   7.17
N009  2  0.79500  0.67760  0.22806 11.00000  0.00010   7.11
C00A  1 -0.06229  0.01068  0.42379 11.00000  0.00010   6.14
C00B  1  0.72485  0.38693  0.43523 11.00000  0.00246   5.98
N00C  2  0.12601 -0.17541  0.67870 11.00000  0.01437   5.21
C00D  1  0.05784  0.10402  0.37882 11.00000  0.02000   4.67
O00E  3  0.62844  0.24397  0.64088 11.00000  0.02697   4.64
C00F  1  1.06229  0.48513  0.50187 11.00000  0.00010   4.53
C00G  1  0.04083  0.18893  0.28820 11.00000  0.00010   4.20
C00H  1  0.79354  0.25029  0.68255 11.00000  0.00010   4.15
C00I  1  0.25049  0.09308  0.46812 11.00000  0.00010   3.92
C00J  1  0.61187  0.21008  0.46649 11.00000  0.07423   3.11
HKLF 4
END
