TITL 2_expF_0_9_expS_1_2_2_a.res in P2(1)/n
REM Old TITL 1 in P2/n
REM SHELXT solution in P2(1)/n: R1 0.267, Rweak 0.046, Alpha 0.089
REM <I/s>   1.259 for  106 systematic absences,  Orientation as input
REM Formula found by SHELXT:  C10 O

CELL  0.71073   7.0400   9.2900  11.5500   90.000   97.870   90.000
ZERR   16.000   0.0014   0.0019   0.0023    0.000    0.030    0.000
LATT  1
SYMM 1/2-X, 1/2+Y, 1/2-Z
SFAC C N O
UNIT 16 16 16
L.S. 10
BOND
LIST 6
FMAP 2
PLAN 20
C001  1  0.55138  0.55181  0.33987 11.00000  0.02658   6.41
C002  1  0.66360  0.92317  0.72164 11.00000  0.02468   6.34
O003  3  0.85127  0.49440  0.30827 11.00000  0.04533   6.20
C004  1  0.58786  0.64320  0.43797 11.00000  0.03047   6.07
C005  1  0.67816  0.48679  0.27840 11.00000  0.02990   6.06
C006  1  0.78111  0.73731  0.60963 11.00000  0.03275   6.02
C007  1  0.46180  0.82894  0.55536 11.00000  0.03445   5.92
C008  1  0.63323  0.83095  0.63006 11.00000  0.03188   5.82
C009  1  0.76004  0.64227  0.51438 11.00000  0.03170   5.69
C00A  1  0.43919  0.73541  0.45913 11.00000  0.03403   5.56
C00B  1  0.59093  0.39963  0.17649 11.00000  0.03470   5.40
HKLF 4
END
