TITL 2_expF_0_5_expS_0_6_2_a.res in P2
REM Old TITL 1 in P2/n
REM SHELXT solution in P2: R1 0.150, Rweak 0.523, Alpha 0.038
REM <I/s>   0.000 for    0 systematic absences,  Orientation as input
REM Formula found by SHELXT:  C43 N26 O10 I

CELL  0.71073   7.0400   9.2900  11.5500   90.000   97.870   90.000
ZERR   16.000   0.0014   0.0019   0.0023    0.000    0.030    0.000
LATT -1
SYMM -X, Y, -Z
SFAC C N O I
UNIT 16 16 16 0
L.S. 10
BOND
LIST 6
FMAP 2
PLAN 20
I001  4  0.50000  0.79301  0.50000 10.50000  0.00010 173.73
O002  3  0.00000  0.32444  0.00000 10.50000  0.01809  16.17
O003  3  0.00000  0.48654  0.00000 10.50000  0.03048  15.47
N004  2  0.00000  0.83174  0.00000 10.50000  0.02694  14.54
N005  2  0.00000  0.67632  0.00000 10.50000  0.02953  13.68
N006  2  0.28235  0.26663  0.43571 11.00000  0.02998  13.64
N007  2  0.60863  0.60860  0.37935 11.00000  0.02114  13.52
N008  2  0.30777  0.88288  0.32595 11.00000  0.04320  11.86
N009  2  0.26324  0.98303  0.24651 11.00000  0.07088  11.49
O00A  3  0.00000  0.58726  0.00000 10.50000  0.02416  10.78
O00B  3  0.53908  0.16488  0.39414 11.00000  0.12801  10.21
O00C  3  0.00000  0.17909  0.00000 10.50000  0.04984  10.14
O00D  3 -0.04359  0.69056  0.25206 11.00000  0.15037   8.21
O00E  3  0.22875  0.23969  0.31678 11.00000  0.23458   7.90
N00F  2  0.34557  0.43463  0.31536 11.00000  0.19750   7.76
C00G  1  0.01870  0.75781  0.08637 11.00000  0.04488   7.42
N00H  2  0.10144  0.38792  0.45063 11.00000  0.22219   7.03
N00I  2  0.42195  1.05235  0.21175 11.00000  0.08768   6.99
N00J  2  0.25695  0.65237  0.31871 11.00000  0.14748   6.96
N00K  2  0.62719  0.09691  0.30561 11.00000  0.12982   6.82
N00L  2  0.21571  0.56107  0.14561 11.00000  0.12126   6.68
N00M  2  0.15105  0.81245  0.35099 11.00000  0.16845   6.66
N00N  2  0.45262  0.69675  0.40106 11.00000  0.04939   6.58
C00O  1  0.00000  0.37918  0.50000 10.50000  0.17017   6.54
C00P  1  0.22538  0.66683  0.05975 11.00000  0.05593   6.45
C00Q  1 -0.11561  0.61906  0.12027 11.00000  0.08151   6.42
C00R  1  0.18560  0.53735  0.53785 11.00000  0.10227   6.31
C00S  1  0.18380  0.68575  0.44500 11.00000  0.08442   6.26
C00T  1  0.67026  0.00620  0.44730 11.00000  0.15680   6.24
C00U  1  0.14151  0.92631  0.32046 11.00000  0.11559   6.18
C00V  1  0.81267  0.10422  0.38897 11.00000  0.08228   6.11
C00W  1 -0.23925  0.10587 -0.07735 11.00000  0.06557   6.09
C00X  1  0.41125  0.35212  0.13684 11.00000  0.16246   6.09
C00Y  1  0.61654 -0.05146  0.30532 11.00000  0.08787   6.02
C00Z  1  0.08493  1.01400  0.42557 11.00000  0.12633   5.98
C010  1  0.45897  0.31711  0.41600 11.00000  0.08698   5.95
C011  1  0.00580  0.85393  0.42458 11.00000  0.13162   5.95
C012  1  0.44241  0.03439  0.40616 11.00000  0.16513   5.93
C013  1  0.22666  0.73428  0.54796 11.00000  0.14480   5.89
C014  1  0.23405  0.51714  0.31224 11.00000  0.11854   5.78
C015  1  0.82859 -0.05235  0.31145 11.00000  0.16128   5.67
C016  1  0.09144  0.62484  0.58941 11.00000  0.17522   5.62
C017  1  0.17708  0.67691  0.16050 11.00000  0.09988   5.53
C018  1  0.29588  0.41368  0.52271 11.00000  0.07862   5.52
HKLF 4
END
