TITL 2_expF_0_6_expS_1_5_2_a.res in P2(1)/n
REM Old TITL 1 in P2/n
REM SHELXT solution in P2(1)/n: R1 0.274, Rweak 0.096, Alpha 0.147
REM <I/s>   1.122 for  106 systematic absences,  Orientation as input
REM Formula found by SHELXT:  C9 N O

CELL  0.71073   7.0400   9.2900  11.5500   90.000   97.870   90.000
ZERR   16.000   0.0014   0.0019   0.0023    0.000    0.030    0.000
LATT  1
SYMM 1/2-X, 1/2+Y, 1/2-Z
SFAC C N O
UNIT 16 16 16
L.S. 10
BOND
LIST 6
FMAP 2
PLAN 20
N001  2  0.55139  0.55120  0.33903 11.00000  0.02717   6.61
O002  3  0.85038  0.49370  0.30851 11.00000  0.03400   6.49
C003  1  0.67838  0.48782  0.27862 11.00000  0.02010   6.27
C004  1  0.66499  0.92483  0.72198 11.00000  0.01702   6.19
C005  1  0.63269  0.82989  0.62981 11.00000  0.02329   6.05
C006  1  0.78057  0.73604  0.61041 11.00000  0.02277   5.93
C007  1  0.58870  0.64246  0.43829 11.00000  0.02183   5.87
C008  1  0.75994  0.64258  0.51494 11.00000  0.02273   5.69
C009  1  0.45980  0.82869  0.55472 11.00000  0.02654   5.58
C00A  1  0.43891  0.73564  0.45934 11.00000  0.02466   5.48
C00B  1  0.59120  0.39926  0.17691 11.00000  0.02369   5.48
HKLF 4
END
