TITL 2_expF_1_4_expS_0_9_2_a.res in P2(1)/n
REM Old TITL 1 in P2/n
REM SHELXT solution in P2(1)/n: R1 0.283, Rweak 0.024, Alpha 0.073
REM <I/s>   1.445 for  106 systematic absences,  Orientation as input
REM Formula found by SHELXT:  C10 O

CELL  0.71073   7.0400   9.2900  11.5500   90.000   97.870   90.000
ZERR   16.000   0.0014   0.0019   0.0023    0.000    0.030    0.000
LATT  1
SYMM 1/2-X, 1/2+Y, 1/2-Z
SFAC C N O
UNIT 16 16 16
L.S. 10
BOND
LIST 6
FMAP 2
PLAN 20
C001  1  0.33781  0.07671  0.27822 11.00000  0.02940   6.46
C002  1  0.44648  0.44713  0.65990 11.00000  0.03383   6.40
C003  1  0.21930  0.26297  0.39056 11.00000  0.04122   6.16
O004  3  0.14748  0.50615  0.69198 11.00000  0.05454   6.11
C005  1  0.41142  0.35587  0.56129 11.00000  0.03746   6.04
C006  1  0.53985  0.17002  0.44345 11.00000  0.04339   5.97
C007  1  0.32229  0.51282  0.72134 11.00000  0.03956   5.93
C008  1  0.23971  0.35741  0.48563 11.00000  0.04067   5.75
C009  1  0.36629  0.16902  0.37022 11.00000  0.03977   5.75
C00A  1  0.56080  0.26607  0.53919 11.00000  0.04368   5.66
C00B  1  0.40999  0.59967  0.82306 11.00000  0.04467   5.37
HKLF 4
END
