TITL 2_expF_1_1_expS_0_8_2_c.res in P2(1)
REM Old TITL 1 in P2/n
REM SHELXT solution in P2(1): R1 0.241, Rweak 0.097, Alpha 0.129
REM <I/s>   2.091 for    6 systematic absences,  Orientation as input
REM Formula found by SHELXT:  C13 N4 O5

CELL  0.71073   7.0400   9.2900  11.5500   90.000   97.870   90.000
ZERR   16.000   0.0014   0.0019   0.0023    0.000    0.030    0.000
LATT -1
SYMM -X, 1/2+Y, -Z
SFAC C N O
UNIT 16 16 16
L.S. 10
BOND
LIST 6
FMAP 2
PLAN 20
O001  3  0.60787  0.75970  0.56109 11.00000  0.02463   8.95
O002  3  0.41276  0.34090  0.97670 11.00000  0.01221   8.11
O003  3  0.84819  0.14982 -0.07037 11.00000  0.03446   7.28
N004  2  0.19998  0.43217  0.81139 11.00000  0.02519   7.19
N005  2  0.30133  0.70982  0.59288 11.00000  0.02556   7.06
C006  1  0.92594  0.24900  0.02895 11.00000  0.02033   6.84
C007  1  0.43105  0.77346  0.52904 11.00000  0.01971   6.78
N008  2  0.69041  0.50127  0.20772 11.00000  0.03367   6.53
N009  2  0.80372  0.31190  0.08683 11.00000  0.02139   6.52
C00A  1  0.33672  0.61826  0.68424 11.00000  0.01168   6.48
C00B  1  0.53210  0.51497  0.86426 11.00000  0.02427   6.45
C00C  1  0.88766  0.58453  0.37967 11.00000  0.01729   6.18
C00D  1  1.02836  0.48611  0.35748 11.00000  0.01929   6.08
C00E  1  0.51005  0.60768  0.76431 11.00000  0.02345   6.04
C00F  1  0.83925  0.40489  0.19371 11.00000  0.03051   5.88
C00G  1  0.37618  0.42399  0.88084 11.00000  0.02537   5.58
C00H  1  1.01035  0.39395  0.26633 11.00000  0.01659   5.48
C00I  1  0.19057  0.52914  0.71151 11.00000  0.01969   5.17
O00J  3  0.91757  0.70397  0.46225 11.00000  0.05920   4.93
C00K  1  0.71639  0.59146  0.29809 11.00000  0.02953   4.82
O00L  3  1.09460  0.24695  0.05620 11.00000  0.03932   4.46
C00M  1  0.33486  0.85018  0.42339 11.00000  0.03454   3.74
HKLF 4
END
