TITL 2_expF_1_2_expS_1_4_2_a.res in P2(1)/n
REM Old TITL 1 in P2/n
REM SHELXT solution in P2(1)/n: R1 0.385, Rweak 0.011, Alpha 0.021
REM <I/s>   1.711 for  106 systematic absences,  Orientation as input
REM Formula found by SHELXT:  C9 N O

CELL  0.71073   7.0400   9.2900  11.5500   90.000   97.870   90.000
ZERR   16.000   0.0014   0.0019   0.0023    0.000    0.030    0.000
LATT  1
SYMM 1/2-X, 1/2+Y, 1/2-Z
SFAC C N O
UNIT 16 16 16
L.S. 10
BOND
LIST 6
FMAP 2
PLAN 20
N001  2  0.33926  0.07368  0.27873 11.00000  0.05840   6.70
C002  1  0.44719  0.44698  0.66026 11.00000  0.05170   6.27
C003  1  0.54007  0.16897  0.44418 11.00000  0.06307   6.18
C004  1  0.21910  0.26060  0.39264 11.00000  0.06221   6.18
C005  1  0.41171  0.35521  0.56136 11.00000  0.05299   6.12
C006  1  0.23733  0.35863  0.48571 11.00000  0.05448   5.85
C007  1  0.32405  0.51275  0.72044 11.00000  0.05694   5.85
C008  1  0.36522  0.16778  0.36961 11.00000  0.05964   5.79
O009  3  0.14412  0.50394  0.69184 11.00000  0.07128   5.78
C00A  1  0.55667  0.26483  0.54029 11.00000  0.06035   5.76
C00B  1  0.41283  0.59746  0.82450 11.00000  0.06705   5.23
HKLF 4
END
