TITL 2_expF_1_5_expS_0_5_2_a.res in Pn
REM Old TITL 1 in P2/n
REM SHELXT solution in Pn: R1 0.241, Rweak 0.151, Alpha 0.057
REM <I/s>   0.986 for  100 systematic absences,  Orientation as input
REM Formula found by SHELXT:  C10 N3 O8

CELL  0.71073   7.0400   9.2900  11.5500   90.000   97.870   90.000
ZERR   16.000   0.0014   0.0019   0.0023    0.000    0.030    0.000
LATT -1
SYMM 1/2+X, -Y, 1/2+Z
SFAC C N O
UNIT 16 16 16
L.S. 10
BOND
LIST 6
FMAP 2
PLAN 20
N001  2  0.08428  0.89323  0.43625 11.00000  0.00010  11.14
N002  2  0.87312  0.41343  0.36837 11.00000  0.02164   9.57
O003  3  0.03846  0.79728  0.33387 11.00000  0.03774   9.45
O004  3  0.64523  0.75613  0.68997 11.00000  0.00997   9.27
O005  3  0.16725  1.16753  0.72333 11.00000  0.00110   9.25
O006  3  0.27064  0.98190  0.60130 11.00000  0.02694   8.74
N007  2  0.18507  0.74134  0.27121 11.00000  0.01698   8.66
O008  3  0.90861  0.86130  0.82441 11.00000  0.03064   7.96
O009  3  1.05976  0.51450  0.53912 11.00000  0.02264   6.95
C00A  1  0.25583  0.88958  0.50542 11.00000  0.01948   6.28
C00B  1 -0.03911  1.07130  0.55192 11.00000  0.00253   6.21
O00C  3  0.34221  0.74310  0.30864 11.00000  0.03665   5.26
C00D  1  0.73086  0.60243  0.47522 11.00000  0.00927   5.25
C00E  1  0.09188  0.65823  0.17559 11.00000  0.01529   4.91
C00F  1  0.70721  0.51006  0.38019 11.00000  0.01612   4.81
O00G  3  0.93927  0.69539  0.65539 11.00000  0.01922   4.71
C00H  1  0.82920  0.76894  0.71436 11.00000  0.00793   4.65
C00I  1  1.04749  0.40916  0.44600 11.00000  0.03412   4.64
C00J  1 -0.05976  0.99071  0.45474 11.00000  0.03151   4.64
C00K  1  0.84140  0.30318  0.28702 11.00000  0.03730   3.48
C00L  1  0.13673  1.07834  0.62846 11.00000  0.01666   3.28
HKLF 4
END
