TITL 2_expF_0_8_expS_0_8_2_a.res in Pn
REM Old TITL 1 in P2/n
REM SHELXT solution in Pn: R1 0.256, Rweak 0.228, Alpha 0.125
REM <I/s>   0.923 for  100 systematic absences,  Orientation as input
REM Formula found by SHELXT:  C8 N2 O8

CELL  0.71073   7.0400   9.2900  11.5500   90.000   97.870   90.000
ZERR   16.000   0.0014   0.0019   0.0023    0.000    0.030    0.000
LATT -1
SYMM 1/2+X, -Y, 1/2+Z
SFAC C N O
UNIT 16 16 16
L.S. 10
BOND
LIST 6
FMAP 2
PLAN 20
O001  3  0.63100  1.08078  0.63572 11.00000  0.00274   9.46
O002  3  0.33595  0.32660  0.28238 11.00000  0.00010   9.35
N003  2  0.42115  0.60263  0.56964 11.00000  0.00010   9.09
O004  3  0.53817  0.80422  0.34558 11.00000  0.02428   7.81
O005  3  0.56316  0.51578  0.54853 11.00000  0.00601   7.81
O006  3  0.22182  0.51436  0.39547 11.00000  0.00963   7.72
O007  3  0.53891  0.42415  0.45440 11.00000  0.00442   7.59
O008  3  0.85214  0.74265  0.31755 11.00000  0.02521   7.00
N009  2  0.59019  0.65240  0.17933 11.00000  0.00551   6.67
O00A  3  0.14786  0.75039  0.69841 11.00000  0.01045   6.46
C00B  1  0.68301  0.74253  0.29401 11.00000  0.00343   6.24
C00C  1  0.25093  0.61190  0.48884 11.00000  0.00010   5.89
C00D  1  0.32091  0.77257  0.73501 11.00000  0.00937   5.84
C00E  1  0.44237  0.70294  0.66529 11.00000  0.00010   5.69
C00F  1  0.41026  0.85358  0.82067 11.00000  0.01997   4.92
C00G  1  0.77717  0.89984  0.51841 11.00000  0.02401   4.81
C00H  1  0.60000  0.88326  0.44983 11.00000  0.01892   3.69
C00I  1  0.79253  0.98885  0.62169 11.00000  0.03923   3.68
HKLF 4
END
