TITL 1_expF_1_0_expS_1_4_1_a.res in P2(1)
REM Old TITL 1 in P2
REM SHELXT solution in P2(1): R1 0.302, Rweak 0.038, Alpha 0.009
REM <I/s>   6.923 for    3 systematic absences,  Orientation as input
REM Formula found by SHELXT:  C15 N2 O

CELL  0.71073   8.0000   5.0200  16.0200   90.000  103.140   90.000
ZERR   12.000   0.0016   0.0010   0.0032    0.000    0.030    0.000
LATT -1
SYMM -X, 1/2+Y, -Z
SFAC C N O
UNIT 12 12 12
L.S. 10
BOND
LIST 6
FMAP 2
PLAN 20
O001  3  0.14505  0.14701  0.25077 11.00000  0.08349   7.16
N002  2  0.15316  0.35880  0.51252 11.00000  0.07467   6.64
N003  2  0.54187  0.41222  0.22183 11.00000  0.07082   6.60
C004  1  0.12752  0.37005  0.42241 11.00000  0.06215   6.45
C005  1  0.19994  0.56459  0.37773 11.00000  0.05979   6.31
C006  1  0.30135  0.75549  0.42862 11.00000  0.06588   6.21
C007  1  0.26672  0.54655  0.55962 11.00000  0.06271   6.02
C008  1  0.27175  0.35300  0.10626 11.00000  0.05790   5.93
C009  1  0.14969  0.37621  0.23168 11.00000  0.06135   5.91
C00A  1  0.11779  0.44033  0.13856 11.00000  0.05404   5.89
C00B  1  0.73831  0.78035  0.21564 11.00000  0.07565   5.87
C00C  1 -0.04180  0.32250  0.08698 11.00000  0.06307   5.73
C00D  1  0.63119  0.85299  0.13564 11.00000  0.07558   5.63
C00E  1  0.44493  0.49498  0.14209 11.00000  0.06069   5.53
C00F  1  0.68652  0.57286  0.25800 11.00000  0.05933   5.52
C00G  1  0.47834  0.71254  0.09873 11.00000  0.07158   5.49
C00H  1  0.16664  0.57747  0.28581 11.00000  0.04950   5.46
C00I  1  0.34412  0.74041  0.51817 11.00000  0.06083   5.32
HKLF 4
END
