TITL 1_expF_0_7_expS_1_5_1_a.res in P2(1)
REM Old TITL 1 in P2
REM SHELXT solution in P2(1): R1 0.216, Rweak 0.104, Alpha 0.022
REM <I/s>   4.161 for    3 systematic absences,  Orientation as input
REM Formula found by SHELXT:  C15 N2 O

CELL  0.71073   8.0000   5.0200  16.0200   90.000  103.140   90.000
ZERR   12.000   0.0016   0.0010   0.0032    0.000    0.030    0.000
LATT -1
SYMM -X, 1/2+Y, -Z
SFAC C N O
UNIT 12 12 12
L.S. 10
BOND
LIST 6
FMAP 2
PLAN 20
O001  3  0.14652  0.14744  0.25323 11.00000  0.05512   7.43
N002  2  0.20191  0.56202  0.37875 11.00000  0.05050   6.76
N003  2  0.54327  0.42108  0.22121 11.00000  0.05153   6.62
C004  1  0.30418  0.75715  0.42616 11.00000  0.04074   6.26
C005  1  0.16177  0.36469  0.51212 11.00000  0.04325   6.25
C006  1  0.27242  0.54663  0.55891 11.00000  0.04396   6.07
C007  1  0.16494  0.58193  0.28850 11.00000  0.02968   6.04
C008  1 -0.04550  0.33465  0.08584 11.00000  0.04516   6.01
C009  1  0.13068  0.36813  0.42115 11.00000  0.04069   6.00
C00A  1  0.34502  0.74243  0.51883 11.00000  0.04296   5.89
C00B  1  0.12016  0.44703  0.13853 11.00000  0.03372   5.86
C00C  1  0.14622  0.37745  0.23151 11.00000  0.04212   5.85
C00D  1  0.73454  0.78136  0.21409 11.00000  0.04939   5.76
C00E  1  0.27172  0.35169  0.10485 11.00000  0.03972   5.69
C00F  1  0.62987  0.85256  0.13360 11.00000  0.05596   5.52
C00G  1  0.44389  0.49671  0.14172 11.00000  0.04018   5.42
C00H  1  0.68665  0.57161  0.25835 11.00000  0.04730   5.41
C00I  1  0.48139  0.71635  0.09774 11.00000  0.04840   5.23
HKLF 4
END
