TITL 1_expF_1_2_expS_1_2_1_a.res in P2(1)
REM Old TITL 1 in P2
REM SHELXT solution in P2(1): R1 0.318, Rweak 0.037, Alpha 0.005
REM <I/s>   7.342 for    3 systematic absences,  Orientation as input
REM Formula found by SHELXT:  C15 N2 O

CELL  0.71073   8.0000   5.0200  16.0200   90.000  103.140   90.000
ZERR   12.000   0.0016   0.0010   0.0032    0.000    0.030    0.000
LATT -1
SYMM -X, 1/2+Y, -Z
SFAC C N O
UNIT 12 12 12
L.S. 10
BOND
LIST 6
FMAP 2
PLAN 20
O001  3  0.14564  0.14358  0.25019 11.00000  0.08663   6.91
N002  2  0.54357  0.41413  0.22201 11.00000  0.07501   6.66
N003  2  0.15356  0.35809  0.51236 11.00000  0.07804   6.55
C004  1  0.20218  0.56606  0.37752 11.00000  0.06297   6.41
C005  1  0.12828  0.36905  0.42299 11.00000  0.06677   6.35
C006  1  0.29633  0.75943  0.42930 11.00000  0.07114   6.14
C007  1  0.14717  0.37507  0.23232 11.00000  0.06139   6.00
C008  1  0.27170  0.35128  0.10656 11.00000  0.06346   5.98
C009  1  0.26483  0.54995  0.56014 11.00000  0.06687   5.93
C00A  1 -0.04200  0.32263  0.08693 11.00000  0.06666   5.75
C00B  1  0.11667  0.44222  0.13835 11.00000  0.05604   5.74
C00C  1  0.74230  0.77464  0.21523 11.00000  0.07886   5.73
C00D  1  0.62836  0.85642  0.13627 11.00000  0.07540   5.69
C00E  1  0.48156  0.71148  0.09938 11.00000  0.07528   5.68
C00F  1  0.16535  0.57954  0.28556 11.00000  0.05237   5.60
C00G  1  0.68802  0.57171  0.25785 11.00000  0.05889   5.53
C00H  1  0.44432  0.49471  0.14315 11.00000  0.06126   5.33
C00I  1  0.34375  0.74157  0.51811 11.00000  0.06573   5.28
HKLF 4
END
