TITL 1_expF_0_9_expS_1_4_1_a.res in P2(1)
REM Old TITL 1 in P2
REM SHELXT solution in P2(1): R1 0.257, Rweak 0.051, Alpha 0.007
REM <I/s>   5.630 for    3 systematic absences,  Orientation as input
REM Formula found by SHELXT:  C16 N O

CELL  0.71073   8.0000   5.0200  16.0200   90.000  103.140   90.000
ZERR   12.000   0.0016   0.0010   0.0032    0.000    0.030    0.000
LATT -1
SYMM -X, 1/2+Y, -Z
SFAC C N O
UNIT 12 12 12
L.S. 10
BOND
LIST 6
FMAP 2
PLAN 20
O001  3  0.85301  0.85188  0.74770 11.00000  0.07058   7.00
N002  2  0.45643  0.57729  0.77733 11.00000  0.06333   6.70
C003  1  0.84190  0.63792  0.48767 11.00000  0.05436   6.43
C004  1  0.79779  0.43657  0.62138 11.00000  0.05109   6.43
C005  1  0.87129  0.62856  0.57754 11.00000  0.05474   6.33
C006  1  0.72983  0.44807  0.44089 11.00000  0.05675   6.19
C007  1  0.69613  0.24017  0.57307 11.00000  0.05653   6.17
C008  1  0.85203  0.62154  0.76823 11.00000  0.05578   5.99
C009  1  0.83456  0.41830  0.71290 11.00000  0.04023   5.98
C00A  1  1.04380  0.67473  0.91362 11.00000  0.05545   5.85
C00B  1  0.72872  0.64509  0.89412 11.00000  0.05192   5.83
C00C  1  0.88250  0.55168  0.86130 11.00000  0.04443   5.77
C00D  1  0.26666  0.21637  0.78559 11.00000  0.06166   5.67
C00E  1  0.65419  0.25887  0.48063 11.00000  0.05533   5.56
C00F  1  0.36915  0.14812  0.86509 11.00000  0.06967   5.48
C00G  1  0.31526  0.42479  0.74135 11.00000  0.05518   5.48
C00H  1  0.52110  0.28285  0.90143 11.00000  0.06156   5.41
C00I  1  0.55692  0.50130  0.85773 11.00000  0.05363   5.22
HKLF 4
END
