TITL 1_expF_0_7_expS_0_5_1_a.res in Pm
REM Old TITL 1 in P2
REM SHELXT solution in Pm: R1 0.121, Rweak 0.520, Alpha 0.140
REM <I/s>   0.000 for    0 systematic absences,  Orientation as input
REM Formula found by SHELXT:  C46 N15 I

CELL  0.71073   8.0000   5.0200  16.0200   90.000  103.140   90.000
ZERR   12.000   0.0016   0.0010   0.0032    0.000    0.030    0.000
LATT -1
SYMM X, -Y, Z
SFAC C N O I
UNIT 12 12 12 0
L.S. 10
BOND
LIST 6
FMAP 2
PLAN 20
I001  4  0.37165  0.50000  0.50049 10.50000  0.00485  86.07
N002  2  0.31425 -0.50000  0.34182 10.50000  0.07571  12.49
N003  2  0.38592  0.28065  0.45340 11.00000  0.06623  11.23
N004  2  0.55182  0.61360  0.64283 11.00000  0.11374  10.30
N005  2  0.40724  0.50000  0.58926 10.50000  0.00719   9.13
N006  2  0.47478  0.50000  0.72188 10.50000  0.15077   8.47
N007  2 -0.00684  0.00000  0.15426 10.50000  0.06053   7.35
N008  2  0.57187  1.15079  0.78253 11.00000  0.11754   7.33
N009  2  0.16169 -0.50000  0.15120 10.50000  0.10533   7.05
C00A  1  0.23867 -0.50000  0.23160 11.00000  0.14099   5.99
C00B  1  0.24471 -0.29973  0.20893 11.00000  0.16439   5.89
C00C  1  0.26822 -0.07369  0.38571 11.00000  0.19801   5.87
C00D  1  0.48268  1.00000  0.94473 10.50000  0.05259   5.72
C00E  1  0.67797  0.00000  0.15417 10.50000  0.05554   5.72
C00F  1  0.39601  0.00000  0.14621 10.50000  0.09083   5.56
C00G  1  0.08824  0.00000  0.21386 10.50000  0.08185   5.47
C00H  1  0.23682 -0.15009  0.28334 11.00000  0.14404   5.42
C00I  1  0.40576  0.78564  0.60874 11.00000  0.03774   5.26
C00J  1  0.22190 -0.32335  0.27295 11.00000  0.08054   5.19
C00K  1  0.45704  1.00000  0.80744 10.50000  0.12371   4.98
C00L  1  0.44000  0.00000  0.25378 10.50000  0.17608   4.78
C00M  1  0.47775  0.67920  0.64457 11.00000  0.04808   4.78
C00N  1  0.56089  0.14692  0.49417 11.00000  0.04397   4.77
C00O  1  0.62792  1.27677  0.89305 11.00000  0.20230   4.74
C00P  1  0.36904  0.69251  0.64106 11.00000  0.05972   4.69
C00Q  1  0.45020  0.00000  0.09063 10.50000  0.08204   4.62
C00R  1  0.50433 -0.27888  0.32675 11.00000  0.13212   4.49
C00S  1  0.33301  0.00000  0.45614 10.50000  0.08143   4.47
C00T  1  0.33635  0.79313  0.73254 11.00000  0.08811   4.44
C00U  1  0.37568  1.00000  0.69485 10.50000  0.04749   4.42
C00V  1  0.90174  1.00000  0.79599 10.50000  0.09233   4.33
C00W  1  1.00684  1.39164  0.81485 11.00000  0.17302   4.32
C00X  1  0.51369  1.07995  0.86198 11.00000  0.20267   4.28
N00Y  2  0.16774  1.00000  0.64637 10.50000  0.15710   4.22
C00Z  1  0.57065  1.00000  0.71005 10.50000  0.12322   4.18
N010  2  0.04404 -0.50000  0.05156 10.50000  0.38689   4.17
C011  1  0.94210  1.50000  0.70301 10.50000  0.06857   4.16
C012  1  0.80186  1.50000  0.96243 10.50000  0.22619   4.11
C013  1  0.71851  1.00000  1.01397 10.50000  0.14545   4.11
C014  1  0.21453 -0.25963  0.14646 11.00000  0.11394   3.93
N015  2  0.08042 -0.74987 -0.01397 11.00000  0.23448   3.90
C016  1  0.56377 -0.23570  0.23429 11.00000  0.23166   3.81
HKLF 4
END
