TITL 1_expF_0_7_expS_1_4_1_a.res in P2(1)
REM Old TITL 1 in P2
REM SHELXT solution in P2(1): R1 0.212, Rweak 0.136, Alpha 0.015
REM <I/s>   3.771 for    3 systematic absences,  Orientation as input
REM Formula found by SHELXT:  C16 N O

CELL  0.71073   8.0000   5.0200  16.0200   90.000  103.140   90.000
ZERR   12.000   0.0016   0.0010   0.0032    0.000    0.030    0.000
LATT -1
SYMM -X, 1/2+Y, -Z
SFAC C N O
UNIT 12 12 12
L.S. 10
BOND
LIST 6
FMAP 2
PLAN 20
O001  3  0.14694  0.14809  0.25344 11.00000  0.05056   7.26
N002  2  0.20154  0.56179  0.37892 11.00000  0.04680   6.54
C003  1  0.54247  0.42351  0.22171 11.00000  0.04015   6.43
C004  1  0.27244  0.54535  0.55910 11.00000  0.04076   6.34
C005  1  0.16476  0.58316  0.28844 11.00000  0.02732   6.28
C006  1  0.30309  0.75953  0.42629 11.00000  0.03650   6.11
C007  1  0.14626  0.37896  0.23171 11.00000  0.03841   6.06
C008  1  0.16252  0.36515  0.51147 11.00000  0.04030   6.00
C009  1  0.13150  0.36895  0.42134 11.00000  0.03743   5.99
C00A  1 -0.04703  0.33445  0.08640 11.00000  0.04268   5.81
C00B  1  0.11945  0.44761  0.13860 11.00000  0.03166   5.71
C00C  1  0.34501  0.74212  0.51847 11.00000  0.04055   5.62
C00D  1  0.73512  0.78330  0.21392 11.00000  0.04717   5.52
C00E  1  0.68562  0.57187  0.25805 11.00000  0.04407   5.40
C00F  1  0.27268  0.35267  0.10515 11.00000  0.03611   5.38
C00G  1  0.44302  0.49791  0.14160 11.00000  0.03555   5.32
C00H  1  0.63079  0.85191  0.13391 11.00000  0.05304   5.25
C00I  1  0.48270  0.71792  0.09761 11.00000  0.04623   4.80
HKLF 4
END
