TITL 1_expF_1_4_expS_1_5_1_a.res in P2(1)
REM Old TITL 1 in P2
REM SHELXT solution in P2(1): R1 0.587, Rweak 0.041, Alpha 0.038
REM <I/s>   2.486 for    3 systematic absences,  Orientation as input
REM Formula found by SHELXT:  C23 N9 O2

CELL  0.71073   8.0000   5.0200  16.0200   90.000  103.140   90.000
ZERR   12.000   0.0016   0.0010   0.0032    0.000    0.030    0.000
LATT -1
SYMM -X, 1/2+Y, -Z
SFAC C N O
UNIT 12 12 12
L.S. 10
BOND
LIST 6
FMAP 2
PLAN 20
O001  3  0.68023  0.32999  0.51512 11.00000  0.09065   8.87
N002  2  0.61357  0.42038  0.13834 11.00000  0.07413   8.36
N003  2  0.79782  0.71654  0.42741 11.00000  0.07973   8.23
N004  2  0.65369  0.11602  0.24594 11.00000  0.08831   7.64
N005  2  0.66800  0.56698  0.28572 11.00000  0.08430   7.60
N006  2  0.44319  0.30999  0.08026 11.00000  0.10028   7.39
C007  1  0.70175  0.55478  0.37431 11.00000  0.09811   7.26
C008  1  0.95608  0.88808  0.77979 11.00000  0.08156   7.16
N009  2  0.79525  1.03810  0.74459 11.00000  0.08527   7.14
N00A  2  1.20724  0.84557  0.89968 11.00000  0.08943   6.97
N00B  2  0.56026  0.06816  0.31807 11.00000  0.14378   6.90
N00C  2  0.63082  0.32080  0.42525 11.00000  0.08104   6.64
C00D  1  1.05073  0.94267  0.86151 11.00000  0.08133   6.56
C00E  1  0.87329  1.29724  0.86163 11.00000  0.07926   5.96
O00F  3  1.09518  0.51613  0.77711 11.00000  0.11850   5.91
C00G  1  0.77690  0.56168  0.56456 11.00000  0.08925   5.51
C00H  1  0.75390  1.25333  0.78371 11.00000  0.09171   5.49
C00I  1  0.85922  0.72199  0.51797 11.00000  0.08065   5.44
C00J  1  0.68643  0.79444  0.68146 11.00000  0.10919   5.36
C00K  1  0.98909  1.20514  0.89093 11.00000  0.10067   4.84
C00L  1  0.35578 -0.29724  0.12856 11.00000  0.12151   4.58
C00M  1  0.98549  0.87716  0.71362 11.00000  0.10334   4.25
C00N  1  0.90690  0.64184  0.34323 11.00000  0.14239   4.16
C00O  1  0.78745  1.05785  0.66216 11.00000  0.10893   3.97
C00P  1  0.94345  0.48763  0.65249 11.00000  0.11463   3.85
C00Q  1  0.25237  0.10678  0.17508 11.00000  0.15979   3.80
C00R  1  0.79926  0.98620  0.35586 11.00000  0.12341   3.66
C00S  1  1.14026  0.52710  0.85826 11.00000  0.13646   3.59
C00T  1  0.52419 -0.20549  0.27697 11.00000  0.18549   3.52
C00U  1  0.48888 -0.14682  0.16876 11.00000  0.10023   3.32
C00V  1  0.87168  0.75517  0.62844 11.00000  0.10885   3.20
C00W  1  0.60964  0.35672  0.23004 11.00000  0.08875   3.14
C00X  1  0.45963  0.06256  0.17671 11.00000  0.12483   3.05
C00Y  1  0.90692  0.21380  0.50781 11.00000  0.11599   3.03
HKLF 4
END
