TITL 1_expF_0_9_expS_0_7_1_a.res in Pm
REM Old TITL 1 in P2
REM SHELXT solution in Pm: R1 0.292, Rweak 0.512, Alpha 0.253
REM <I/s>   0.000 for    0 systematic absences,  Orientation as input
REM Formula found by SHELXT:  C39 N16 O8 Br3

CELL  0.71073   8.0000   5.0200  16.0200   90.000  103.140   90.000
ZERR   12.000   0.0016   0.0010   0.0032    0.000    0.030    0.000
LATT -1
SYMM X, -Y, Z
SFAC C N O BR
UNIT 12 12 12 0
L.S. 10
BOND
LIST 6
FMAP 2
PLAN 20
BR01  4  0.69252  1.00000  0.29314 10.50000  0.06199  29.56
BR02  4  0.43376  1.00000  0.18468 10.50000  0.06203  25.13
BR03  4  0.31685  0.00000  0.59023 10.50000  0.04278  24.61
O004  3  0.27928  0.00000  0.50097 10.50000  0.00010  15.36
N005  2  0.63046  0.50000  0.64186 10.50000  0.00010  13.84
O006  3  0.48807  0.72749  0.29372 11.00000  0.01077  13.03
O007  3  0.94080  0.50000  0.91935 10.50000  0.01983  12.20
N008  2  0.47415  0.81978  0.24113 11.00000  0.01106  12.04
O009  3  0.82663  1.13001  0.82920 11.00000  0.02088   9.87
N00A  2 -0.03564  0.50000  0.12443 10.50000  0.00450   9.60
O00B  3  0.57157  0.50000  0.55151 10.50000  0.03297   8.82
N00C  2  1.29202  0.50000  0.78288 10.50000  0.00010   8.45
N00D  2  1.35995  0.59551  0.86801 11.00000  0.00517   7.46
N00E  2  1.04819  0.77834  0.81143 11.00000  0.04115   7.46
N00F  2  0.92725  0.50000  0.81595 10.50000  0.02226   7.40
C00G  1  1.12119  0.57334  0.63201 11.00000  0.00010   7.35
N00H  2  0.16592  0.00000  0.32432 10.50000  0.00010   7.07
N00I  2 -0.00381  0.33850  0.07295 11.00000  0.02747   6.92
C00J  1  0.24081  0.00000  0.42582 10.50000  0.00010   6.75
N00K  2  0.67388  1.00000  0.59685 10.50000  0.00029   6.68
C00L  1  0.77959  0.50000  0.69201 10.50000  0.00010   6.03
N00M  2  0.61976  0.70658  0.66350 11.00000  0.04187   5.94
C00N  1  0.79346  0.50000  0.47748 10.50000  0.00010   5.65
C00O  1  0.74490  0.75728  0.58468 11.00000  0.01166   5.57
C00P  1 -0.27883  0.24973  0.03152 11.00000  0.03954   5.54
C00Q  1  0.05903  0.24227  0.22416 11.00000  0.00424   5.34
C00R  1  0.86846  0.90374  0.64278 11.00000  0.00734   5.28
C00S  1  1.28149  0.78520  0.72897 11.00000  0.00348   5.25
C00T  1  1.31552  0.50000  0.94980 10.50000  0.04139   5.09
C00U  1  1.00524  0.50000  0.49500 10.50000  0.00010   4.83
C00V  1 -0.35995  0.15030 -0.02228 11.00000  0.02077   4.82
C00W  1  0.77209  1.25058  0.78642 11.00000  0.03775   4.71
O00X  3  1.34881  0.50000  1.02228 10.50000  0.03193   4.64
C00Y  1  0.57079  0.50000  0.44068 10.50000  0.00430   4.51
C00Z  1  0.65839  0.67581  0.46553 11.00000  0.00010   4.45
C010  1  1.30018  0.72827  0.82441 11.00000  0.00287   4.27
C011  1  0.14644  0.38157  0.29135 11.00000  0.00010   4.22
C012  1 -0.16914  0.00000  0.08772 10.50000  0.01452   4.19
C013  1 -0.10076  0.39178  0.17620 11.00000  0.04931   4.16
C014  1  0.35500  0.50000  0.37240 10.50000  0.03510   4.02
C015  1 -0.23847  0.50000  0.06181 10.50000  0.00328   3.90
C016  1  0.76795  1.00000  0.73069 10.50000  0.00010   3.84
C017  1  0.94988  0.87705  0.71407 11.00000  0.01398   3.76
C018  1  0.92158  0.38693  0.35796 11.00000  0.04264   3.70
C019  1  0.63678  0.50000  0.24774 10.50000  0.00010   3.69
HKLF 4
END
