TITL 1_expF_1_1_expS_1_4_1_a.res in P2(1)
REM Old TITL 1 in P2
REM SHELXT solution in P2(1): R1 0.358, Rweak 0.033, Alpha 0.007
REM <I/s>   8.446 for    3 systematic absences,  Orientation as input
REM Formula found by SHELXT:  C15 N2 O

CELL  0.71073   8.0000   5.0200  16.0200   90.000  103.140   90.000
ZERR   12.000   0.0016   0.0010   0.0032    0.000    0.030    0.000
LATT -1
SYMM -X, 1/2+Y, -Z
SFAC C N O
UNIT 12 12 12
L.S. 10
BOND
LIST 6
FMAP 2
PLAN 20
O001  3  0.84739  0.85500  0.74556 11.00000  0.10578   6.69
N002  2  0.45536  0.57914  0.78273 11.00000  0.09346   6.59
N003  2  0.80061  0.44585  0.62141 11.00000  0.10386   6.54
C004  1  0.83972  0.64779  0.48879 11.00000  0.06823   6.48
C005  1  0.86621  0.63794  0.57967 11.00000  0.06871   6.36
C006  1  0.72914  0.65939  0.89267 11.00000  0.07739   6.17
C007  1  0.52589  0.30381  0.89985 11.00000  0.08520   6.07
C008  1  0.70312  0.25716  0.57110 11.00000  0.08305   5.96
C009  1  0.72814  0.46683  0.44086 11.00000  0.08194   5.93
C00A  1  0.87545  0.56495  0.86401 11.00000  0.07053   5.91
C00B  1  0.85538  0.63456  0.76989 11.00000  0.07021   5.76
C00C  1  0.37233  0.14500  0.86119 11.00000  0.08808   5.76
C00D  1  1.03754  0.68884  0.91048 11.00000  0.07579   5.68
C00E  1  0.25048  0.25344  0.78737 11.00000  0.09878   5.54
C00F  1  0.83661  0.42738  0.71574 11.00000  0.07489   5.47
C00G  1  0.30839  0.43742  0.74432 11.00000  0.08017   5.46
C00H  1  0.55243  0.50900  0.85814 11.00000  0.08769   5.28
C00I  1  0.66283  0.27311  0.48611 11.00000  0.07095   4.99
HKLF 4
END
