TITL 1_expF_1_4_expS_1_2_1_a.res in P2(1)
REM Old TITL 1 in P2
REM SHELXT solution in P2(1): R1 0.406, Rweak 0.028, Alpha 0.011
REM <I/s>  10.379 for    3 systematic absences,  Orientation as input
REM Formula found by SHELXT:  C14 N3 O2

CELL  0.71073   8.0000   5.0200  16.0200   90.000  103.140   90.000
ZERR   12.000   0.0016   0.0010   0.0032    0.000    0.030    0.000
LATT -1
SYMM -X, 1/2+Y, -Z
SFAC C N O
UNIT 12 12 12
L.S. 10
BOND
LIST 6
FMAP 2
PLAN 20
O001  3  0.85207  0.15796  0.75305 11.00000  0.14410   6.74
N002  2  0.83903  0.37261  0.49278 11.00000  0.11373   6.70
N003  2  0.45178  0.41359  0.77966 11.00000  0.12436   6.60
N004  2  0.78925  0.56993  0.61930 11.00000  0.12407   6.53
C005  1  0.85564  0.37317  0.57489 11.00000  0.09129   6.47
C006  1  0.51957  0.69301  0.90322 11.00000  0.10175   6.46
C007  1  0.74664  0.36515  0.89589 11.00000  0.12190   6.22
C008  1  0.72859  0.55243  0.43939 11.00000  0.09847   5.99
C009  1  0.37119  0.84204  0.86260 11.00000  0.11386   5.91
C00A  1  0.85260  0.37230  0.76778 11.00000  0.09531   5.88
C00B  1  0.88153  0.44186  0.86244 11.00000  0.09327   5.82
C00C  1  0.70281  0.74865  0.56842 11.00000  0.10537   5.77
C00D  1  1.03485  0.28070  0.90902 11.00000  0.10877   5.70
C00E  1  0.31480  0.55250  0.74300 11.00000  0.09630   5.62
C00F  1  0.24504  0.76040  0.78546 11.00000  0.11213   5.54
C00G  1  0.83299  0.57753  0.71389 11.00000  0.09127   5.29
C00H  1  0.57420  0.50683  0.86061 11.00000  0.09178   5.20
C00I  1  0.66131  0.75759  0.48377 11.00000  0.10179   4.61
O00J  3  1.04769  0.37111  0.61611 11.00000  0.49261   3.59
HKLF 4
END
