TITL 1_expF_1_5_expS_0_7_1_a.res in P2(1)
REM Old TITL 1 in P2
REM SHELXT solution in P2(1): R1 0.218, Rweak 0.102, Alpha 0.020
REM <I/s>   4.167 for    3 systematic absences,  Orientation as input
REM Formula found by SHELXT:  C15 N2 O

CELL  0.71073   8.0000   5.0200  16.0200   90.000  103.140   90.000
ZERR   12.000   0.0016   0.0010   0.0032    0.000    0.030    0.000
LATT -1
SYMM -X, 1/2+Y, -Z
SFAC C N O
UNIT 12 12 12
L.S. 10
BOND
LIST 6
FMAP 2
PLAN 20
O001  3  0.14659  0.85253  0.25329 11.00000  0.05478   7.27
N002  2  0.54312  0.57888  0.22104 11.00000  0.05145   6.54
N003  2  0.20203  0.43784  0.37877 11.00000  0.05034   6.53
C004  1  0.30436  0.24303  0.42613 11.00000  0.04051   6.37
C005  1  0.16173  0.63525  0.51215 11.00000  0.04348   6.32
C006  1  0.27252  0.45332  0.55885 11.00000  0.04393   6.30
C007  1  0.16523  0.41822  0.28859 11.00000  0.02968   6.29
C008  1  0.13069  0.63175  0.42103 11.00000  0.04068   6.10
C009  1  0.14624  0.62254  0.23145 11.00000  0.04235   6.06
C00A  1 -0.04545  0.66541  0.08593 11.00000  0.04522   5.89
C00B  1  0.12010  0.55293  0.13847 11.00000  0.03373   5.85
C00C  1  0.34500  0.25780  0.51883 11.00000  0.04313   5.79
C00D  1  0.27185  0.64833  0.10488 11.00000  0.03973   5.57
C00E  1  0.62986  0.14747  0.13343 11.00000  0.05592   5.49
C00F  1  0.44393  0.50318  0.14161 11.00000  0.04007   5.43
C00G  1  0.73416  0.21873  0.21407 11.00000  0.04947   5.37
C00H  1  0.68668  0.42842  0.25835 11.00000  0.04748   5.37
C00I  1  0.48163  0.28367  0.09785 11.00000  0.04849   5.28
HKLF 4
END
