TITL 1_expF_1_4_expS_1_1_1_a.res in P2(1)
REM Old TITL 1 in P2
REM SHELXT solution in P2(1): R1 0.347, Rweak 0.036, Alpha 0.008
REM <I/s>   8.461 for    3 systematic absences,  Orientation as input
REM Formula found by SHELXT:  C15 N2 O

CELL  0.71073   8.0000   5.0200  16.0200   90.000  103.140   90.000
ZERR   12.000   0.0016   0.0010   0.0032    0.000    0.030    0.000
LATT -1
SYMM -X, 1/2+Y, -Z
SFAC C N O
UNIT 12 12 12
L.S. 10
BOND
LIST 6
FMAP 2
PLAN 20
O001  3  0.15521  0.14585  0.25464 11.00000  0.11364   6.85
N002  2  0.54597  0.41296  0.21879 11.00000  0.09717   6.80
N003  2  0.15533  0.35392  0.51059 11.00000  0.08240   6.68
C004  1  0.13521  0.36894  0.42087 11.00000  0.06854   6.36
C005  1  0.19879  0.54177  0.37818 11.00000  0.08204   6.34
C006  1  0.27005  0.34297  0.10615 11.00000  0.08402   6.04
C007  1  0.27158  0.53859  0.55971 11.00000  0.07794   5.98
C008  1  0.30162  0.73593  0.42795 11.00000  0.08540   5.91
C009  1  0.14476  0.36321  0.23008 11.00000  0.06659   5.86
C00A  1  0.47095  0.70358  0.09894 11.00000  0.08512   5.81
C00B  1  0.12168  0.43531  0.13731 11.00000  0.07200   5.71
C00C  1  0.74435  0.76512  0.21340 11.00000  0.09671   5.70
C00D  1  0.63181  0.85415  0.13673 11.00000  0.08852   5.65
C00E  1  0.69123  0.55763  0.25664 11.00000  0.07900   5.65
C00F  1 -0.03725  0.30992  0.08803 11.00000  0.07614   5.59
C00G  1  0.16491  0.57324  0.28473 11.00000  0.07035   5.50
C00H  1  0.44717  0.49188  0.14235 11.00000  0.08088   5.37
C00I  1  0.33913  0.72189  0.51389 11.00000  0.07303   5.15
HKLF 4
END
