TITL 1_expF_0_8_expS_0_9_1_a.res in P2(1)
REM Old TITL 1 in P2
REM SHELXT solution in P2(1): R1 0.224, Rweak 0.287, Alpha 0.106
REM <I/s>   2.627 for    3 systematic absences,  Orientation as input
REM Formula found by SHELXT:  C14 N3 O

CELL  0.71073   8.0000   5.0200  16.0200   90.000  103.140   90.000
ZERR   12.000   0.0016   0.0010   0.0032    0.000    0.030    0.000
LATT -1
SYMM -X, 1/2+Y, -Z
SFAC C N O
UNIT 12 12 12
L.S. 10
BOND
LIST 6
FMAP 2
PLAN 20
O001  3  0.14740  0.85161  0.25198 11.00000  0.02688   8.31
C002  1  0.20318  0.43903  0.37770 11.00000  0.01882   7.10
N003  2  0.16367  0.41308  0.28859 11.00000  0.01790   6.84
N004  2  0.30343  0.23897  0.42689 11.00000  0.02445   6.71
N005  2  0.16134  0.63225  0.51215 11.00000  0.03728   6.68
C006  1  0.27233  0.45919  0.55889 11.00000  0.02487   6.23
C007  1  0.14248  0.61896  0.23065 11.00000  0.02266   6.20
C008  1  0.73425  0.21600  0.21458 11.00000  0.03126   6.13
C009  1 -0.04921  0.65712  0.08512 11.00000  0.02519   6.03
C00A  1  0.34391  0.26026  0.51752 11.00000  0.02731   5.87
C00B  1  0.68269  0.42711  0.26025 11.00000  0.02778   5.85
C00C  1  0.11932  0.55030  0.13969 11.00000  0.01287   5.73
C00D  1  0.44590  0.50388  0.14233 11.00000  0.01731   5.58
C00E  1  0.53791  0.58040  0.22292 11.00000  0.02214   5.57
C00F  1  0.12910  0.63140  0.42012 11.00000  0.02003   5.11
C00G  1  0.27205  0.64601  0.10457 11.00000  0.01705   5.07
C00H  1  0.62764  0.14839  0.13241 11.00000  0.03807   5.06
C00I  1  0.48606  0.28932  0.09634 11.00000  0.02678   4.84
HKLF 4
END
