TITL 1_expF_1_3_expS_1_1_1_a.res in P2(1)
REM Old TITL 1 in P2
REM SHELXT solution in P2(1): R1 0.317, Rweak 0.038, Alpha 0.011
REM <I/s>   7.188 for    3 systematic absences,  Orientation as input
REM Formula found by SHELXT:  C16 N O

CELL  0.71073   8.0000   5.0200  16.0200   90.000  103.140   90.000
ZERR   12.000   0.0016   0.0010   0.0032    0.000    0.030    0.000
LATT -1
SYMM -X, 1/2+Y, -Z
SFAC C N O
UNIT 12 12 12
L.S. 10
BOND
LIST 6
FMAP 2
PLAN 20
O001  3  0.14730  0.85538  0.25135 11.00000  0.08743   6.88
N002  2  0.54243  0.58216  0.22137 11.00000  0.07353   6.77
C003  1  0.20273  0.43855  0.37771 11.00000  0.06365   6.45
C004  1  0.15699  0.64272  0.51180 11.00000  0.06473   6.37
C005  1  0.13036  0.63236  0.42289 11.00000  0.06277   6.14
C006  1  0.30218  0.24706  0.42878 11.00000  0.07043   6.07
C007  1  0.14912  0.62582  0.23141 11.00000  0.06261   6.00
C008  1  0.26994  0.65033  0.10742 11.00000  0.06208   5.99
C009  1  0.26798  0.45491  0.56015 11.00000  0.06684   5.92
C00A  1  0.73714  0.22414  0.21507 11.00000  0.07709   5.81
C00B  1  0.11791  0.56113  0.13756 11.00000  0.05557   5.80
C00C  1  0.47508  0.28831  0.09915 11.00000  0.07642   5.78
C00D  1 -0.03941  0.67747  0.08765 11.00000  0.06733   5.75
C00E  1  0.62912  0.14462  0.13543 11.00000  0.07815   5.74
C00F  1  0.16640  0.42408  0.28567 11.00000  0.05259   5.62
C00G  1  0.68539  0.42874  0.25778 11.00000  0.05986   5.51
C00H  1  0.44591  0.50748  0.14299 11.00000  0.06461   5.37
C00I  1  0.34419  0.26287  0.51675 11.00000  0.06559   5.34
HKLF 4
END
