TITL 1_expF_1_3_expS_0_7_1_a.res in P2(1)
REM Old TITL 1 in P2
REM SHELXT solution in P2(1): R1 0.211, Rweak 0.171, Alpha 0.034
REM <I/s>   3.432 for    3 systematic absences,  Orientation as input
REM Formula found by SHELXT:  C16 N O

CELL  0.71073   8.0000   5.0200  16.0200   90.000  103.140   90.000
ZERR   12.000   0.0016   0.0010   0.0032    0.000    0.030    0.000
LATT -1
SYMM -X, 1/2+Y, -Z
SFAC C N O
UNIT 12 12 12
L.S. 10
BOND
LIST 6
FMAP 2
PLAN 20
O001  3  0.14696  0.14839  0.25332 11.00000  0.04470   6.96
N002  2  0.20196  0.56146  0.37882 11.00000  0.04213   6.61
C003  1  0.16453  0.58396  0.28854 11.00000  0.02333   6.40
C004  1  0.14528  0.37925  0.23169 11.00000  0.03431   6.29
C005  1  0.27239  0.54486  0.55903 11.00000  0.03655   6.29
C006  1  0.30326  0.76027  0.42622 11.00000  0.03181   6.12
C007  1  0.16274  0.36569  0.51132 11.00000  0.03734   6.11
C008  1  0.54182  0.42383  0.22188 11.00000  0.03571   5.99
C009  1  0.34473  0.74218  0.51843 11.00000  0.03684   5.92
C00A  1 -0.04775  0.33594  0.08619 11.00000  0.03882   5.81
C00B  1  0.13111  0.36883  0.42122 11.00000  0.03358   5.74
C00C  1  0.11944  0.44802  0.13873 11.00000  0.02710   5.64
C00D  1  0.68543  0.57190  0.25826 11.00000  0.04019   5.55
C00E  1  0.73499  0.78374  0.21397 11.00000  0.04330   5.34
C00F  1  0.27235  0.35304  0.10506 11.00000  0.03164   5.16
C00G  1  0.62988  0.85161  0.13361 11.00000  0.04906   5.14
C00H  1  0.44365  0.49774  0.14166 11.00000  0.03116   5.06
C00I  1  0.48338  0.71714  0.09724 11.00000  0.04197   4.66
HKLF 4
END
