TITL 1_expF_1_3_expS_0_6_1_a.res in P2(1)
REM Old TITL 1 in P2
REM SHELXT solution in P2(1): R1 0.218, Rweak 0.245, Alpha 0.058
REM <I/s>   2.863 for    3 systematic absences,  Orientation as input
REM Formula found by SHELXT:  C15 N2 O

CELL  0.71073   8.0000   5.0200  16.0200   90.000  103.140   90.000
ZERR   12.000   0.0016   0.0010   0.0032    0.000    0.030    0.000
LATT -1
SYMM -X, 1/2+Y, -Z
SFAC C N O
UNIT 12 12 12
L.S. 10
BOND
LIST 6
FMAP 2
PLAN 20
O001  3  0.85429  0.14821  0.74657 11.00000  0.03300   7.18
N002  2  0.79704  0.56116  0.62150 11.00000  0.03176   6.78
N003  2  0.69672  0.76211  0.57358 11.00000  0.02966   6.68
C004  1  0.85606  0.38136  0.76845 11.00000  0.02609   6.36
C005  1  0.72741  0.54337  0.44103 11.00000  0.02817   6.13
C006  1  0.65585  0.74202  0.48212 11.00000  0.02960   6.09
C007  1  1.04886  0.33939  0.91443 11.00000  0.02979   6.08
C008  1  0.83582  0.58627  0.71107 11.00000  0.01554   6.03
C009  1  0.87061  0.36991  0.57947 11.00000  0.02500   5.85
C00A  1  0.55553  0.49873  0.85801 11.00000  0.02188   5.85
C00B  1  0.45872  0.42269  0.77813 11.00000  0.02613   5.78
C00C  1  0.88099  0.44850  0.86082 11.00000  0.01784   5.76
C00D  1  0.26463  0.78422  0.78605 11.00000  0.03548   5.62
C00E  1  0.83658  0.36674  0.48873 11.00000  0.03187   5.54
C00F  1  0.72869  0.35373  0.89519 11.00000  0.02168   5.53
C00G  1  0.37250  0.85179  0.86753 11.00000  0.03975   5.24
C00H  1  0.31444  0.57172  0.74097 11.00000  0.03094   5.02
C00I  1  0.51559  0.71504  0.90233 11.00000  0.03412   4.30
HKLF 4
END
