TITL 1_expF_1_5_expS_1_2_1_a.res in P2(1)
REM Old TITL 1 in P2
REM SHELXT solution in P2(1): R1 0.405, Rweak 0.023, Alpha 0.034
REM <I/s>  12.481 for    3 systematic absences,  Orientation as input
REM Formula found by SHELXT:  C16 N5 O

CELL  0.71073   8.0000   5.0200  16.0200   90.000  103.140   90.000
ZERR   12.000   0.0016   0.0010   0.0032    0.000    0.030    0.000
LATT -1
SYMM -X, 1/2+Y, -Z
SFAC C N O
UNIT 12 12 12
L.S. 10
BOND
LIST 6
FMAP 2
PLAN 20
N001  2  0.88095  0.46444  0.85955 11.00000  0.09214   7.81
N002  2  0.50740  0.21178  0.90061 11.00000  0.10791   7.44
N003  2  0.72523  0.55635  0.89154 11.00000  0.11076   7.36
N004  2  0.44821  0.50343  0.78131 11.00000  0.11576   7.23
N005  2  0.82315  0.54770  0.49023 11.00000  0.10108   6.70
C006  1  0.86476  0.54791  0.57357 11.00000  0.08346   6.52
C007  1  0.84037  0.78052  0.74539 11.00000  0.10365   6.25
C008  1  0.80096  0.35632  0.62291 11.00000  0.09901   6.08
C009  1  1.03693  0.59521  0.91516 11.00000  0.09407   6.04
C00A  1  0.56594  0.41100  0.85642 11.00000  0.09134   6.01
C00B  1  0.25953  0.12919  0.78371 11.00000  0.10449   5.90
C00C  1  0.70191  0.15942  0.57483 11.00000  0.09508   5.59
C00D  1  0.29143  0.36963  0.73801 11.00000  0.08959   5.49
C00E  1  0.35735  0.07654  0.85841 11.00000  0.09882   5.41
C00F  1  0.83664  0.34641  0.71266 11.00000  0.08004   5.31
C00G  1  0.66242  0.16975  0.48259 11.00000  0.09768   4.98
C00H  1  0.75070  0.66505  0.84159 11.00000  0.22990   4.97
C00I  1  0.85528  0.54586  0.77056 11.00000  0.08248   4.51
O00J  3  0.62978  0.92346  0.66404 11.00000  0.45378   3.43
C00K  1  0.98103  0.68734  0.64230 11.00000  0.13713   3.43
C00L  1  0.07553  0.35017  0.68205 11.00000  0.15579   3.33
C00M  1  0.71774  0.36452  0.44350 11.00000  0.10995   3.15
HKLF 4
END
