TITL 1_expF_1_0_expS_1_3_1_a.res in P2(1)
REM Old TITL 1 in P2
REM SHELXT solution in P2(1): R1 0.269, Rweak 0.050, Alpha 0.015
REM <I/s>   5.966 for    3 systematic absences,  Orientation as input
REM Formula found by SHELXT:  C16 N O

CELL  0.71073   8.0000   5.0200  16.0200   90.000  103.140   90.000
ZERR   12.000   0.0016   0.0010   0.0032    0.000    0.030    0.000
LATT -1
SYMM -X, 1/2+Y, -Z
SFAC C N O
UNIT 12 12 12
L.S. 10
BOND
LIST 6
FMAP 2
PLAN 20
O001  3  0.14391  0.14579  0.25148 11.00000  0.07502   6.83
N002  2  0.54169  0.42213  0.22193 11.00000  0.06481   6.75
C003  1  0.15654  0.36039  0.51229 11.00000  0.05776   6.48
C004  1  0.20134  0.56539  0.37842 11.00000  0.05146   6.41
C005  1  0.12708  0.37042  0.42196 11.00000  0.05570   6.31
C006  1  0.26891  0.54884  0.55883 11.00000  0.05785   6.13
C007  1  0.30444  0.75873  0.42730 11.00000  0.05913   6.08
C008  1  0.14910  0.37807  0.23128 11.00000  0.05812   6.01
C009  1  0.27429  0.35563  0.10688 11.00000  0.05309   5.89
C00A  1  0.16614  0.57956  0.28678 11.00000  0.04254   5.89
C00B  1 -0.04151  0.32659  0.08640 11.00000  0.05748   5.80
C00C  1  0.11711  0.44685  0.13794 11.00000  0.04858   5.75
C00D  1  0.73484  0.78326  0.21441 11.00000  0.06263   5.71
C00E  1  0.34486  0.74081  0.51825 11.00000  0.05518   5.55
C00F  1  0.63037  0.85421  0.13446 11.00000  0.06916   5.53
C00G  1  0.68488  0.57204  0.25835 11.00000  0.05570   5.50
C00H  1  0.47834  0.71709  0.09784 11.00000  0.06521   5.50
C00I  1  0.44310  0.49794  0.14189 11.00000  0.05718   5.25
HKLF 4
END
