TITL 1_expF_1_2_expS_0_8_1_a.res in P2(1)
REM Old TITL 1 in P2
REM SHELXT solution in P2(1): R1 0.211, Rweak 0.140, Alpha 0.032
REM <I/s>   3.685 for    3 systematic absences,  Orientation as input
REM Formula found by SHELXT:  C15 N2 O

CELL  0.71073   8.0000   5.0200  16.0200   90.000  103.140   90.000
ZERR   12.000   0.0016   0.0010   0.0032    0.000    0.030    0.000
LATT -1
SYMM -X, 1/2+Y, -Z
SFAC C N O
UNIT 12 12 12
L.S. 10
BOND
LIST 6
FMAP 2
PLAN 20
O001  3  0.85457  0.14790  0.74627 11.00000  0.04814   7.43
N002  2  0.79825  0.56295  0.62107 11.00000  0.04358   6.86
N003  2  0.69733  0.76042  0.57340 11.00000  0.04328   6.63
C004  1  0.72720  0.54500  0.44084 11.00000  0.03916   6.37
C005  1  0.83752  0.36542  0.48831 11.00000  0.03944   6.28
C006  1  1.04754  0.33549  0.91397 11.00000  0.03984   6.23
C007  1  0.83526  0.58417  0.71149 11.00000  0.02589   6.12
C008  1  0.86933  0.37022  0.57910 11.00000  0.03499   6.02
C009  1  0.45750  0.42297  0.77845 11.00000  0.03759   6.02
C00A  1  0.88091  0.44816  0.86115 11.00000  0.02978   6.01
C00B  1  0.65453  0.74216  0.48221 11.00000  0.03907   5.96
C00C  1  0.85368  0.38037  0.76831 11.00000  0.03616   5.91
C00D  1  0.26435  0.78268  0.78607 11.00000  0.04568   5.69
C00E  1  0.31398  0.57189  0.74182 11.00000  0.04164   5.46
C00F  1  0.72744  0.35314  0.89496 11.00000  0.03375   5.36
C00G  1  0.55696  0.49915  0.85826 11.00000  0.03378   5.31
C00H  1  0.36988  0.85210  0.86651 11.00000  0.05006   5.25
C00I  1  0.51704  0.71764  0.90153 11.00000  0.04508   4.95
HKLF 4
END
