TITL 1_expF_0_6_expS_1_2_1_a.res in P2(1)
REM Old TITL 1 in P2
REM SHELXT solution in P2(1): R1 0.225, Rweak 0.289, Alpha 0.150
REM <I/s>   2.632 for    3 systematic absences,  Orientation as input
REM Formula found by SHELXT:  C16 N O

CELL  0.71073   8.0000   5.0200  16.0200   90.000  103.140   90.000
ZERR   12.000   0.0016   0.0010   0.0032    0.000    0.030    0.000
LATT -1
SYMM -X, 1/2+Y, -Z
SFAC C N O
UNIT 12 12 12
L.S. 10
BOND
LIST 6
FMAP 2
PLAN 20
O001  3  0.85178  0.14929  0.74816 11.00000  0.02739   6.78
N002  2  0.83613  0.58564  0.71160 11.00000  0.01825   6.69
C003  1  0.85855  0.38016  0.76907 11.00000  0.02279   6.67
C004  1  0.46283  0.42210  0.77674 11.00000  0.02292   6.27
C005  1  0.83697  0.36663  0.48826 11.00000  0.02859   6.22
C006  1  0.69634  0.76067  0.57354 11.00000  0.01889   6.13
C007  1  0.79711  0.56023  0.62210 11.00000  0.02070   6.11
C008  1  0.65761  0.74147  0.48179 11.00000  0.02870   6.01
C009  1  0.72787  0.54119  0.44128 11.00000  0.02506   5.99
C00A  1  0.86969  0.36704  0.57990 11.00000  0.02057   5.92
C00B  1  0.26497  0.78447  0.78516 11.00000  0.03182   5.89
C00C  1  1.05015  0.34037  0.91417 11.00000  0.02752   5.86
C00D  1  0.55375  0.49483  0.85759 11.00000  0.01913   5.24
C00E  1  0.72860  0.35282  0.89549 11.00000  0.01866   5.08
C00F  1  0.31739  0.57339  0.73984 11.00000  0.03028   5.04
C00G  1  0.88067  0.44886  0.86057 11.00000  0.01422   4.86
C00H  1  0.37391  0.85071  0.86723 11.00000  0.03841   4.54
C00I  1  0.51325  0.71147  0.90506 11.00000  0.02631   4.37
HKLF 4
END
