TITL 1_expF_1_2_expS_0_9_1_a.res in P2(1)
REM Old TITL 1 in P2
REM SHELXT solution in P2(1): R1 0.221, Rweak 0.093, Alpha 0.023
REM <I/s>   4.382 for    3 systematic absences,  Orientation as input
REM Formula found by SHELXT:  C16 N O

CELL  0.71073   8.0000   5.0200  16.0200   90.000  103.140   90.000
ZERR   12.000   0.0016   0.0010   0.0032    0.000    0.030    0.000
LATT -1
SYMM -X, 1/2+Y, -Z
SFAC C N O
UNIT 12 12 12
L.S. 10
BOND
LIST 6
FMAP 2
PLAN 20
O001  3  0.85224  0.85206  0.74643 11.00000  0.05859   7.08
N002  2  0.79835  0.43839  0.62119 11.00000  0.05202   6.65
C003  1  0.69499  0.24194  0.57399 11.00000  0.04341   6.39
C004  1  0.86925  0.63179  0.57901 11.00000  0.04182   6.26
C005  1  0.88109  0.55342  0.86142 11.00000  0.03625   6.20
C006  1  0.45709  0.57733  0.77850 11.00000  0.04432   6.18
C007  1  0.83431  0.41780  0.71128 11.00000  0.03200   6.14
C008  1  0.83782  0.63594  0.48781 11.00000  0.04609   6.12
C009  1  0.72741  0.45463  0.44111 11.00000  0.04732   6.10
C00A  1  1.04464  0.66751  0.91374 11.00000  0.04846   5.97
C00B  1  0.85159  0.62230  0.76818 11.00000  0.04354   5.92
C00C  1  0.72621  0.64840  0.89440 11.00000  0.04136   5.88
C00D  1  0.36758  0.14794  0.86593 11.00000  0.05673   5.77
C00E  1  0.65480  0.25854  0.48103 11.00000  0.04576   5.50
C00F  1  0.26720  0.21875  0.78620 11.00000  0.05083   5.50
C00G  1  0.55806  0.50357  0.85813 11.00000  0.04204   5.39
C00H  1  0.31432  0.42933  0.74126 11.00000  0.04905   5.35
C00I  1  0.51932  0.28192  0.90198 11.00000  0.05196   5.26
HKLF 4
END
