TITL 1_expF_0_9_expS_0_9_1_a.res in P2(1)
REM Old TITL 1 in P2
REM SHELXT solution in P2(1): R1 0.216, Rweak 0.226, Alpha 0.059
REM <I/s>   2.973 for    3 systematic absences,  Orientation as input
REM Formula found by SHELXT:  C16 N O

CELL  0.71073   8.0000   5.0200  16.0200   90.000  103.140   90.000
ZERR   12.000   0.0016   0.0010   0.0032    0.000    0.030    0.000
LATT -1
SYMM -X, 1/2+Y, -Z
SFAC C N O
UNIT 12 12 12
L.S. 10
BOND
LIST 6
FMAP 2
PLAN 20
O001  3  0.85321  0.85188  0.74712 11.00000  0.03696   7.08
N002  2  0.69672  0.23885  0.57339 11.00000  0.03344   6.80
C003  1  0.85561  0.61919  0.76833 11.00000  0.02897   6.71
C004  1  0.72769  0.45737  0.44106 11.00000  0.03132   6.43
C005  1  0.79754  0.43780  0.62155 11.00000  0.02569   6.28
C006  1  0.83556  0.41433  0.71145 11.00000  0.01762   5.98
C007  1  0.83738  0.63387  0.48833 11.00000  0.03372   5.94
C008  1  0.65567  0.25754  0.48215 11.00000  0.03330   5.81
C009  1  1.04931  0.66137  0.91439 11.00000  0.03170   5.80
C00A  1  0.46022  0.57816  0.77755 11.00000  0.02895   5.79
C00B  1  0.26512  0.21626  0.78580 11.00000  0.03775   5.72
C00C  1  0.88084  0.55122  0.86058 11.00000  0.02038   5.58
C00D  1  0.37236  0.14812  0.86702 11.00000  0.04270   5.57
C00E  1  0.87046  0.63000  0.57960 11.00000  0.02717   5.57
C00F  1  0.31484  0.42804  0.74087 11.00000  0.03448   5.39
C00G  1  0.55490  0.50124  0.85791 11.00000  0.02472   5.23
C00H  1  0.72790  0.64697  0.89519 11.00000  0.02470   4.88
C00I  1  0.51467  0.28634  0.90265 11.00000  0.03569   4.18
HKLF 4
END
