TITL 1_expF_1_1_expS_0_8_1_a.res in P2(1)
REM Old TITL 1 in P2
REM SHELXT solution in P2(1): R1 0.212, Rweak 0.178, Alpha 0.040
REM <I/s>   3.275 for    3 systematic absences,  Orientation as input
REM Formula found by SHELXT:  C15 N2 O

CELL  0.71073   8.0000   5.0200  16.0200   90.000  103.140   90.000
ZERR   12.000   0.0016   0.0010   0.0032    0.000    0.030    0.000
LATT -1
SYMM -X, 1/2+Y, -Z
SFAC C N O
UNIT 12 12 12
L.S. 10
BOND
LIST 6
FMAP 2
PLAN 20
O001  3  0.85167  0.85165  0.74764 11.00000  0.04127   7.27
C002  1  0.79814  0.43868  0.62153 11.00000  0.02824   6.71
N003  2  0.83591  0.41600  0.71188 11.00000  0.02799   6.53
N004  2  0.72796  0.45811  0.44122 11.00000  0.04276   6.53
C005  1  0.69662  0.24010  0.57369 11.00000  0.02915   6.35
C006  1  1.04693  0.66505  0.91409 11.00000  0.03469   6.25
C007  1  0.85479  0.61909  0.76891 11.00000  0.03129   6.17
C008  1  0.45968  0.57732  0.77707 11.00000  0.03250   6.06
C009  1  0.83799  0.63506  0.48811 11.00000  0.03547   6.03
C00A  1  0.88057  0.55123  0.86085 11.00000  0.02362   5.93
C00B  1  0.86836  0.63181  0.57928 11.00000  0.02958   5.84
C00C  1  0.65532  0.25813  0.48192 11.00000  0.03541   5.80
C00D  1  0.26479  0.21604  0.78563 11.00000  0.03919   5.51
C00E  1  0.31700  0.42763  0.74090 11.00000  0.03727   5.35
C00F  1  0.36892  0.14835  0.86674 11.00000  0.04585   5.20
C00G  1  0.72665  0.64710  0.89516 11.00000  0.02870   5.11
C00H  1  0.55570  0.50365  0.85789 11.00000  0.02735   4.77
C00I  1  0.51697  0.28268  0.90356 11.00000  0.03977   4.71
HKLF 4
END
