TITL 1_expF_1_1_expS_1_2_1_a.res in P2(1)
REM Old TITL 1 in P2
REM SHELXT solution in P2(1): R1 0.275, Rweak 0.044, Alpha 0.011
REM <I/s>   6.157 for    3 systematic absences,  Orientation as input
REM Formula found by SHELXT:  C16 N O

CELL  0.71073   8.0000   5.0200  16.0200   90.000  103.140   90.000
ZERR   12.000   0.0016   0.0010   0.0032    0.000    0.030    0.000
LATT -1
SYMM -X, 1/2+Y, -Z
SFAC C N O
UNIT 12 12 12
L.S. 10
BOND
LIST 6
FMAP 2
PLAN 20
O001  3  0.14568  0.14687  0.25120 11.00000  0.07579   7.09
N002  2  0.54223  0.42163  0.22250 11.00000  0.06724   6.74
C003  1  0.15712  0.36409  0.51240 11.00000  0.06016   6.47
C004  1  0.20218  0.56850  0.37771 11.00000  0.05483   6.47
C005  1  0.30362  0.76027  0.42808 11.00000  0.06310   6.15
C006  1  0.12673  0.37043  0.42268 11.00000  0.05729   6.15
C007  1  0.14996  0.37940  0.23162 11.00000  0.06122   5.99
C008  1  0.26802  0.55272  0.55858 11.00000  0.05924   5.98
C009  1  0.16510  0.58027  0.28657 11.00000  0.04573   5.98
C00A  1  0.27271  0.35566  0.10672 11.00000  0.05602   5.94
C00B  1 -0.03939  0.32415  0.08664 11.00000  0.06209   5.76
C00C  1  0.73714  0.78187  0.21480 11.00000  0.06899   5.74
C00D  1  0.48151  0.71600  0.09812 11.00000  0.06771   5.71
C00E  1  0.11594  0.44722  0.13772 11.00000  0.04907   5.65
C00F  1  0.62796  0.85313  0.13515 11.00000  0.07295   5.53
C00G  1  0.34428  0.74253  0.51804 11.00000  0.05759   5.50
C00H  1  0.68517  0.57419  0.25811 11.00000  0.05638   5.48
C00I  1  0.44220  0.49881  0.14180 11.00000  0.05714   5.38
HKLF 4
END
