TITL 1_expF_1_2_expS_1_4_1_a.res in P2(1)
REM Old TITL 1 in P2
REM SHELXT solution in P2(1): R1 0.412, Rweak 0.029, Alpha 0.005
REM <I/s>  10.502 for    3 systematic absences,  Orientation as input
REM Formula found by SHELXT:  C14 N3 O2

CELL  0.71073   8.0000   5.0200  16.0200   90.000  103.140   90.000
ZERR   12.000   0.0016   0.0010   0.0032    0.000    0.030    0.000
LATT -1
SYMM -X, 1/2+Y, -Z
SFAC C N O
UNIT 12 12 12
L.S. 10
BOND
LIST 6
FMAP 2
PLAN 20
N001  2  0.54785  0.40470  0.22375 11.00000  0.12924   6.71
N002  2  0.15268  0.37141  0.51049 11.00000  0.11043   6.61
O003  3  0.15014  0.15840  0.25427 11.00000  0.12220   6.56
N004  2  0.20684  0.53452  0.37823 11.00000  0.10592   6.55
C005  1  0.14330  0.36129  0.42418 11.00000  0.08442   6.41
C006  1  0.47375  0.69584  0.09724 11.00000  0.10844   6.31
C007  1  0.25691  0.35872  0.10372 11.00000  0.10964   6.28
C008  1  0.26965  0.54413  0.56039 11.00000  0.08977   5.98
C009  1  0.63992  0.84160  0.13662 11.00000  0.12025   5.94
C00A  1  0.28849  0.74519  0.43163 11.00000  0.11087   5.89
C00B  1  0.14238  0.36193  0.23009 11.00000  0.08889   5.86
C00C  1  0.11729  0.44102  0.13778 11.00000  0.09069   5.78
C00D  1 -0.02414  0.27009  0.09085 11.00000  0.11748   5.67
C00E  1  0.69216  0.54927  0.26138 11.00000  0.09593   5.67
C00F  1  0.76223  0.77786  0.21769 11.00000  0.11823   5.64
C00G  1  0.17008  0.55091  0.28511 11.00000  0.08894   5.37
C00H  1  0.42977  0.49382  0.14060 11.00000  0.08549   5.26
C00I  1  0.33394  0.73539  0.51210 11.00000  0.10463   4.82
O00J  3 -0.04101  0.20816  0.37226 11.00000  0.33435   3.31
HKLF 4
END
