TITL 1_expF_0_8_expS_1_2_1_a.res in P2(1)
REM Old TITL 1 in P2
REM SHELXT solution in P2(1): R1 0.211, Rweak 0.137, Alpha 0.032
REM <I/s>   3.682 for    3 systematic absences,  Orientation as input
REM Formula found by SHELXT:  C17 O

CELL  0.71073   8.0000   5.0200  16.0200   90.000  103.140   90.000
ZERR   12.000   0.0016   0.0010   0.0032    0.000    0.030    0.000
LATT -1
SYMM -X, 1/2+Y, -Z
SFAC C N O
UNIT 12 12 12
L.S. 10
BOND
LIST 6
FMAP 2
PLAN 20
O001  3  0.85206  0.85167  0.74730 11.00000  0.05004   7.19
C002  1  0.72806  0.45498  0.44095 11.00000  0.04078   6.44
C003  1  0.45944  0.57653  0.77752 11.00000  0.03998   6.41
C004  1  0.79865  0.43715  0.62110 11.00000  0.03654   6.38
C005  1  0.83549  0.41642  0.71193 11.00000  0.02676   6.26
C006  1  0.85431  0.62053  0.76830 11.00000  0.03836   6.21
C007  1  0.69700  0.24018  0.57369 11.00000  0.03639   6.20
C008  1  0.86847  0.63102  0.57882 11.00000  0.03685   6.03
C009  1  0.83835  0.63482  0.48845 11.00000  0.04016   5.93
C00A  1  1.04809  0.66527  0.91376 11.00000  0.04164   5.82
C00B  1  0.88059  0.55178  0.86098 11.00000  0.03098   5.75
C00C  1  0.65523  0.25732  0.48160 11.00000  0.04130   5.49
C00D  1  0.31460  0.42734  0.74166 11.00000  0.04441   5.48
C00E  1  0.26488  0.21647  0.78576 11.00000  0.04676   5.42
C00F  1  0.36947  0.14833  0.86590 11.00000  0.05279   5.41
C00G  1  0.55582  0.50222  0.85828 11.00000  0.03515   5.40
C00H  1  0.72700  0.64753  0.89492 11.00000  0.03587   5.11
C00I  1  0.51569  0.28360  0.90290 11.00000  0.04431   4.79
HKLF 4
END
