TITL 1_expF_1_4_expS_1_3_1_a.res in P2(1)
REM Old TITL 1 in P2
REM SHELXT solution in P2(1): R1 0.405, Rweak 0.009, Alpha 0.010
REM <I/s>  12.788 for    3 systematic absences,  Orientation as input
REM Formula found by SHELXT:  C12 N3 O6

CELL  0.71073   8.0000   5.0200  16.0200   90.000  103.140   90.000
ZERR   12.000   0.0016   0.0010   0.0032    0.000    0.030    0.000
LATT -1
SYMM -X, 1/2+Y, -Z
SFAC C N O
UNIT 12 12 12
L.S. 10
BOND
LIST 6
FMAP 2
PLAN 20
O001  3  0.16442  0.70953  0.51226 11.00000  0.10002   8.20
O002  3  0.13688  0.92520  0.25333 11.00000  0.09605   8.10
N003  2  0.12286  0.63165  0.13918 11.00000  0.08677   7.99
O004  3  0.55651  0.64359  0.21865 11.00000  0.11654   7.68
O005  3 -0.04269  0.73131  0.08854 11.00000  0.10193   7.54
N006  2  0.19370  0.51090  0.37502 11.00000  0.09222   7.50
C007  1  0.13057  0.70279  0.42215 11.00000  0.07276   7.01
C008  1  0.68866  0.50132  0.25540 11.00000  0.09958   6.99
N009  2  0.51099  0.35842  0.10564 11.00000  0.11101   6.90
C00A  1  0.16237  0.49411  0.28545 11.00000  0.07225   6.02
C00B  1  0.34063  0.31987  0.51694 11.00000  0.08358   5.64
C00C  1  0.27013  0.52948  0.55798 11.00000  0.08731   5.55
C00D  1  0.28716  0.71172  0.10598 11.00000  0.08833   5.47
C00E  1  0.13224  0.69692  0.23408 11.00000  0.08379   5.39
C00F  1  0.64424  0.22116  0.13416 11.00000  0.09508   5.38
C00G  1  0.29526  0.31952  0.42835 11.00000  0.08388   5.37
C00H  1  0.44600  0.58506  0.14304 11.00000  0.09081   5.35
C00I  1  0.73101  0.29528  0.21381 11.00000  0.09453   5.11
O00J  3  0.75842  0.52589  0.33754 11.00000  0.17445   3.68
C00K  1  0.38564  0.07480  0.01411 11.00000  0.20737   3.33
O00L  3  0.01658  0.82280  0.37143 11.00000  0.18469   3.04
HKLF 4
END
