TITL 1_expF_0_8_expS_1_5_1_a.res in P2(1)
REM Old TITL 1 in P2
REM SHELXT solution in P2(1): R1 0.240, Rweak 0.074, Alpha 0.011
REM <I/s>   5.181 for    3 systematic absences,  Orientation as input
REM Formula found by SHELXT:  C16 N O

CELL  0.71073   8.0000   5.0200  16.0200   90.000  103.140   90.000
ZERR   12.000   0.0016   0.0010   0.0032    0.000    0.030    0.000
LATT -1
SYMM -X, 1/2+Y, -Z
SFAC C N O
UNIT 12 12 12
L.S. 10
BOND
LIST 6
FMAP 2
PLAN 20
O001  3  0.14690  0.14689  0.25221 11.00000  0.06770   7.12
N002  2  0.54297  0.42403  0.22102 11.00000  0.06110   6.68
C003  1  0.20140  0.56076  0.37870 11.00000  0.04738   6.49
C004  1  0.15913  0.36075  0.51195 11.00000  0.05227   6.33
C005  1  0.26971  0.54721  0.55875 11.00000  0.05389   6.29
C006  1  0.12834  0.37008  0.42079 11.00000  0.04837   6.28
C007  1  0.30553  0.75465  0.42660 11.00000  0.05437   6.14
C008  1  0.16443  0.58149  0.28712 11.00000  0.03932   6.02
C009  1  0.14661  0.37778  0.23111 11.00000  0.05157   5.98
C00A  1  0.11813  0.44607  0.13889 11.00000  0.04235   5.89
C00B  1 -0.04343  0.32815  0.08650 11.00000  0.05284   5.89
C00C  1  0.27291  0.35075  0.10549 11.00000  0.04964   5.80
C00D  1  0.73337  0.78067  0.21456 11.00000  0.05869   5.60
C00E  1  0.34393  0.73808  0.51881 11.00000  0.05199   5.58
C00F  1  0.68608  0.57376  0.25894 11.00000  0.05392   5.49
C00G  1  0.63017  0.85311  0.13358 11.00000  0.06399   5.43
C00H  1  0.47807  0.71762  0.09773 11.00000  0.05946   5.36
C00I  1  0.44460  0.49780  0.14198 11.00000  0.05225   5.19
HKLF 4
END
