TITL 1_expF_1_4_expS_0_8_1_a.res in P2(1)
REM Old TITL 1 in P2
REM SHELXT solution in P2(1): R1 0.226, Rweak 0.083, Alpha 0.007
REM <I/s>   4.639 for    3 systematic absences,  Orientation as input
REM Formula found by SHELXT:  C17 O

CELL  0.71073   8.0000   5.0200  16.0200   90.000  103.140   90.000
ZERR   12.000   0.0016   0.0010   0.0032    0.000    0.030    0.000
LATT -1
SYMM -X, 1/2+Y, -Z
SFAC C N O
UNIT 12 12 12
L.S. 10
BOND
LIST 6
FMAP 2
PLAN 20
O001  3  0.85356  0.85195  0.74713 11.00000  0.06338   7.38
C002  1  0.45767  0.57653  0.77844 11.00000  0.04775   6.48
C003  1  0.69572  0.24205  0.57376 11.00000  0.04981   6.38
C004  1  0.79828  0.43751  0.62123 11.00000  0.04413   6.36
C005  1  0.84069  0.63623  0.48755 11.00000  0.05052   6.27
C006  1  0.72807  0.45472  0.44151 11.00000  0.05240   6.18
C007  1  0.87040  0.63049  0.57902 11.00000  0.04506   6.17
C008  1  0.85111  0.62074  0.76897 11.00000  0.04804   6.01
C009  1  0.83492  0.41815  0.71210 11.00000  0.03654   5.92
C00A  1  0.88116  0.55365  0.86111 11.00000  0.04061   5.87
C00B  1  1.04379  0.66795  0.91402 11.00000  0.05080   5.83
C00C  1  0.26671  0.21733  0.78608 11.00000  0.05631   5.63
C00D  1  0.65629  0.25815  0.48081 11.00000  0.04966   5.61
C00E  1  0.36910  0.14805  0.86521 11.00000  0.06128   5.56
C00F  1  0.72481  0.64914  0.89447 11.00000  0.04495   5.55
C00G  1  0.55637  0.50205  0.85775 11.00000  0.04627   5.51
C00H  1  0.31434  0.42719  0.74079 11.00000  0.05165   5.42
C00I  1  0.51948  0.28164  0.90240 11.00000  0.05576   5.05
HKLF 4
END
