TITL 1_expF_1_5_expS_0_6_1_a.res in P2(1)
REM Old TITL 1 in P2
REM SHELXT solution in P2(1): R1 0.214, Rweak 0.166, Alpha 0.043
REM <I/s>   3.383 for    3 systematic absences,  Orientation as input
REM Formula found by SHELXT:  C16 N O

CELL  0.71073   8.0000   5.0200  16.0200   90.000  103.140   90.000
ZERR   12.000   0.0016   0.0010   0.0032    0.000    0.030    0.000
LATT -1
SYMM -X, 1/2+Y, -Z
SFAC C N O
UNIT 12 12 12
L.S. 10
BOND
LIST 6
FMAP 2
PLAN 20
O001  3  0.85155  0.85152  0.74805 11.00000  0.04306   6.79
N002  2  0.83601  0.41608  0.71202 11.00000  0.02959   6.62
C003  1  0.46174  0.57760  0.77694 11.00000  0.03486   6.48
C004  1  0.79810  0.43840  0.62159 11.00000  0.03112   6.33
C005  1  0.72800  0.45599  0.44096 11.00000  0.03607   6.27
C006  1  0.86842  0.63233  0.57919 11.00000  0.03106   6.21
C007  1  0.83880  0.63493  0.48824 11.00000  0.03628   6.00
C008  1  0.85571  0.62069  0.76891 11.00000  0.03352   5.87
C009  1  0.69680  0.24029  0.57368 11.00000  0.03075   5.75
C00A  1  0.65593  0.25805  0.48182 11.00000  0.03700   5.66
C00B  1  0.26492  0.21630  0.78560 11.00000  0.04206   5.41
C00C  1  0.88081  0.55098  0.86087 11.00000  0.02563   5.40
C00D  1  1.04826  0.66426  0.91402 11.00000  0.03709   5.38
C00E  1  0.72715  0.64750  0.89517 11.00000  0.03060   5.36
C00F  1  0.31606  0.42723  0.74090 11.00000  0.03989   5.23
C00G  1  0.55540  0.50496  0.85805 11.00000  0.03051   5.18
C00H  1  0.37035  0.14848  0.86641 11.00000  0.04880   4.85
C00I  1  0.51492  0.28532  0.90379 11.00000  0.03822   4.77
HKLF 4
END
