TITL 1_expF_1_5_expS_1_4_1_a.res in P2(1)
REM Old TITL 1 in P2
REM SHELXT solution in P2(1): R1 0.610, Rweak 0.064, Alpha 0.130
REM <I/s>   4.813 for    3 systematic absences,  Orientation as input
REM Formula found by SHELXT:  C23 N6 O3

CELL  0.71073   8.0000   5.0200  16.0200   90.000  103.140   90.000
ZERR   12.000   0.0016   0.0010   0.0032    0.000    0.030    0.000
LATT -1
SYMM -X, 1/2+Y, -Z
SFAC C N O
UNIT 12 12 12
L.S. 10
BOND
LIST 6
FMAP 2
PLAN 20
O001  3  0.18000  0.27287  0.51108 11.00000  0.08987   8.28
N002  2  0.08980  0.35706  0.14010 11.00000  0.09486   7.70
N003  2  0.30237  0.68485  0.42790 11.00000  0.10010   7.56
O004  3 -0.05748  0.28986  0.07701 11.00000  0.26184   7.46
N005  2  0.16293  0.52061  0.28585 11.00000  0.08658   7.38
N006  2  0.71122  0.48826  0.26342 11.00000  0.09376   7.18
N007  2  0.17678  0.04483  0.25806 11.00000  0.10695   7.04
N008  2  0.44939  0.40839  0.13696 11.00000  0.09483   6.91
C009  1  0.54844  0.35143  0.22238 11.00000  0.06697   6.65
C00A  1  0.13078  0.28723  0.42175 11.00000  0.06749   6.46
C00B  1  0.29176  0.26609  0.11658 11.00000  0.10344   6.28
C00C  1  0.22075  0.48098  0.37358 11.00000  0.10095   5.93
C00D  1  0.61742  0.75603  0.13014 11.00000  0.08648   5.91
C00E  1  0.03188  0.08426  0.29186 11.00000  0.10694   5.90
C00F  1  0.29152  0.47939  0.56673 11.00000  0.10625   5.54
O00G  3  0.46437 -0.07605  0.24251 11.00000  0.13221   5.24
C00H  1  0.50827  0.65634  0.10956 11.00000  0.10020   5.22
C00I  1  0.73246  0.70535  0.21768 11.00000  0.08529   5.09
C00J  1  0.40327  0.61205  0.51820 11.00000  0.09466   5.00
C00K  1  0.38681  0.49448  0.65293 11.00000  0.10875   4.69
C00L  1  0.81807  0.28904  0.34167 11.00000  0.11029   4.55
C00M  1  0.47406  0.66865  0.34129 11.00000  0.14101   3.80
C00N  1  0.32732 -0.00392  0.35699 11.00000  0.12733   3.77
C00O  1  0.85736  0.56815  0.16018 11.00000  0.11480   3.73
C00P  1  0.44888  0.05985  0.20120 11.00000  0.11732   3.66
C00Q  1  0.80645  1.07605  0.20735 11.00000  0.11521   3.46
C00R  1  0.55101  0.33483  0.30474 11.00000  0.09239   3.44
C00S  1  0.12326  0.31709  0.22875 11.00000  0.08158   3.41
C00T  1  0.35271  0.28002  0.01278 11.00000  0.15842   3.11
C00U  1  0.36753  0.81873  0.08661 11.00000  0.10069   3.04
C00V  1  0.23622  0.59927  0.25651 11.00000  0.19191   3.03
C00W  1  0.72649  0.46960  0.35887 11.00000  0.10708   3.02
HKLF 4
END
