TITL 1_expF_1_2_expS_1_1_1_a.res in P2(1)
REM Old TITL 1 in P2
REM SHELXT solution in P2(1): R1 0.274, Rweak 0.043, Alpha 0.007
REM <I/s>   6.168 for    3 systematic absences,  Orientation as input
REM Formula found by SHELXT:  C16 N O

CELL  0.71073   8.0000   5.0200  16.0200   90.000  103.140   90.000
ZERR   12.000   0.0016   0.0010   0.0032    0.000    0.030    0.000
LATT -1
SYMM -X, 1/2+Y, -Z
SFAC C N O
UNIT 12 12 12
L.S. 10
BOND
LIST 6
FMAP 2
PLAN 20
O001  3  0.85384  0.14622  0.74882 11.00000  0.07486   7.04
N002  2  0.45896  0.42268  0.77796 11.00000  0.06740   6.70
C003  1  0.84261  0.36246  0.48791 11.00000  0.05967   6.48
C004  1  0.79744  0.56602  0.62236 11.00000  0.05403   6.41
C005  1  0.87294  0.36858  0.57786 11.00000  0.05593   6.32
C006  1  0.69575  0.75967  0.57278 11.00000  0.06209   6.14
C007  1  0.73278  0.55280  0.44144 11.00000  0.05951   6.14
C008  1  0.85018  0.37775  0.76860 11.00000  0.05997   6.05
C009  1  1.03931  0.32303  0.91270 11.00000  0.05997   5.87
C00A  1  0.83465  0.57953  0.71334 11.00000  0.04469   5.86
C00B  1  0.72697  0.35374  0.89332 11.00000  0.05627   5.80
C00C  1  0.88414  0.44689  0.86214 11.00000  0.04834   5.78
C00D  1  0.37138  0.85378  0.86529 11.00000  0.07314   5.62
C00E  1  0.26245  0.78146  0.78522 11.00000  0.06654   5.62
C00F  1  0.51859  0.71603  0.90188 11.00000  0.06627   5.58
C00G  1  0.31464  0.57328  0.74174 11.00000  0.05644   5.50
C00H  1  0.65588  0.74081  0.48200 11.00000  0.05770   5.45
C00I  1  0.55637  0.49717  0.85805 11.00000  0.05657   5.37
HKLF 4
END
