TITL 1_expF_1_1_expS_1_5_1_a.res in P2(1)
REM Old TITL 1 in P2
REM SHELXT solution in P2(1): R1 0.362, Rweak 0.027, Alpha 0.007
REM <I/s>   9.993 for    3 systematic absences,  Orientation as input
REM Formula found by SHELXT:  C15 N2 O

CELL  0.71073   8.0000   5.0200  16.0200   90.000  103.140   90.000
ZERR   12.000   0.0016   0.0010   0.0032    0.000    0.030    0.000
LATT -1
SYMM -X, 1/2+Y, -Z
SFAC C N O
UNIT 12 12 12
L.S. 10
BOND
LIST 6
FMAP 2
PLAN 20
N001  2  0.54491  0.40221  0.22137 11.00000  0.11588   6.67
O002  3  0.15287  0.14790  0.25000 11.00000  0.13785   6.67
N003  2  0.15848  0.37386  0.51067 11.00000  0.10593   6.63
C004  1  0.20058  0.56991  0.37757 11.00000  0.09807   6.48
C005  1  0.13886  0.39017  0.42324 11.00000  0.08016   6.38
C006  1  0.25912  0.37471  0.10448 11.00000  0.10204   6.21
C007  1  0.47435  0.72283  0.09957 11.00000  0.10936   6.15
C008  1  0.30785  0.75832  0.43074 11.00000  0.10284   5.88
C009  1  0.27708  0.55618  0.56108 11.00000  0.08944   5.83
C00A  1  0.12253  0.45113  0.13906 11.00000  0.08593   5.80
C00B  1  0.63971  0.85210  0.13670 11.00000  0.10452   5.79
C00C  1  0.14671  0.38696  0.23194 11.00000  0.07914   5.73
C00D  1  0.74900  0.77820  0.21852 11.00000  0.11338   5.61
C00E  1 -0.03482  0.32171  0.08783 11.00000  0.09346   5.59
C00F  1  0.68932  0.57141  0.26140 11.00000  0.09534   5.49
C00G  1  0.43645  0.50436  0.14314 11.00000  0.09113   5.34
C00H  1  0.16488  0.59489  0.28360 11.00000  0.08237   5.28
C00I  1  0.34313  0.75526  0.51623 11.00000  0.09683   4.86
HKLF 4
END
