TITL 1_expF_0_6_expS_1_4_1_a.res in P2(1)
REM Old TITL 1 in P2
REM SHELXT solution in P2(1): R1 0.213, Rweak 0.200, Alpha 0.070
REM <I/s>   3.112 for    3 systematic absences,  Orientation as input
REM Formula found by SHELXT:  C15 N2 O

CELL  0.71073   8.0000   5.0200  16.0200   90.000  103.140   90.000
ZERR   12.000   0.0016   0.0010   0.0032    0.000    0.030    0.000
LATT -1
SYMM -X, 1/2+Y, -Z
SFAC C N O
UNIT 12 12 12
L.S. 10
BOND
LIST 6
FMAP 2
PLAN 20
O001  3  0.85319  0.85188  0.74683 11.00000  0.03924   6.74
N002  2  0.72796  0.45815  0.44133 11.00000  0.04105   6.59
N003  2  0.69714  0.23878  0.57343 11.00000  0.03516   6.55
C004  1  0.85449  0.61805  0.76829 11.00000  0.02983   6.52
C005  1  0.79765  0.43735  0.62132 11.00000  0.02629   6.52
C006  1  0.83539  0.41492  0.71150 11.00000  0.01889   6.31
C007  1  1.04797  0.66329  0.91435 11.00000  0.03217   6.01
C008  1  0.45888  0.57748  0.77766 11.00000  0.02992   5.91
C009  1  0.86953  0.62969  0.57953 11.00000  0.02817   5.86
C00A  1  0.88053  0.55094  0.86069 11.00000  0.02171   5.78
C00B  1  0.37024  0.14812  0.86702 11.00000  0.04267   5.52
C00C  1  0.65490  0.25758  0.48220 11.00000  0.03378   5.50
C00D  1  0.83745  0.63384  0.48810 11.00000  0.03486   5.49
C00E  1  0.26504  0.21568  0.78583 11.00000  0.03811   5.45
C00F  1  0.72733  0.64599  0.89512 11.00000  0.02628   5.26
C00G  1  0.55553  0.50018  0.85779 11.00000  0.02524   5.21
C00H  1  0.31580  0.42795  0.74100 11.00000  0.03492   5.14
C00I  1  0.51634  0.28330  0.90221 11.00000  0.03974   4.44
HKLF 4
END
