TITL 1_expF_0_9_expS_0_8_1_a.res in P2(1)
REM Old TITL 1 in P2
REM SHELXT solution in P2(1): R1 0.224, Rweak 0.288, Alpha 0.093
REM <I/s>   2.628 for    3 systematic absences,  Orientation as input
REM Formula found by SHELXT:  C14 N3 O

CELL  0.71073   8.0000   5.0200  16.0200   90.000  103.140   90.000
ZERR   12.000   0.0016   0.0010   0.0032    0.000    0.030    0.000
LATT -1
SYMM -X, 1/2+Y, -Z
SFAC C N O
UNIT 12 12 12
L.S. 10
BOND
LIST 6
FMAP 2
PLAN 20
O001  3  0.85315  0.85108  0.74728 11.00000  0.02597   8.80
N002  2  0.83636  0.41315  0.71106 11.00000  0.01756   7.34
N003  2  0.79591  0.44268  0.62203 11.00000  0.02766   7.27
C004  1  0.85860  0.61926  0.76896 11.00000  0.02049   7.12
N005  2  1.04865  0.65813  0.91458 11.00000  0.03438   6.74
C006  1  0.69563  0.23954  0.57387 11.00000  0.01699   6.26
C007  1  0.72622  0.45858  0.44115 11.00000  0.02308   6.25
C008  1  0.65783  0.25847  0.48149 11.00000  0.02578   6.24
C009  1  0.46076  0.57594  0.77762 11.00000  0.02127   6.20
C00A  1  0.88044  0.55151  0.86104 11.00000  0.01333   6.07
C00B  1  0.83613  0.63352  0.48913 11.00000  0.02683   5.96
C00C  1  0.31619  0.42815  0.74035 11.00000  0.02781   5.91
C00D  1  0.87093  0.63196  0.57966 11.00000  0.02035   5.91
C00E  1  0.37402  0.14892  0.86792 11.00000  0.03589   5.85
C00F  1  0.26409  0.21587  0.78537 11.00000  0.03103   5.60
C00G  1  0.55505  0.50433  0.85782 11.00000  0.01783   5.24
C00H  1  0.51416  0.28693  0.90448 11.00000  0.02741   5.24
C00I  1  0.73000  0.64682  0.89556 11.00000  0.01751   4.53
HKLF 4
END
