TITL 1_expF_1_4_expS_0_7_1_a.res in P2(1)
REM Old TITL 1 in P2
REM SHELXT solution in P2(1): R1 0.212, Rweak 0.131, Alpha 0.027
REM <I/s>   3.767 for    3 systematic absences,  Orientation as input
REM Formula found by SHELXT:  C17 O

CELL  0.71073   8.0000   5.0200  16.0200   90.000  103.140   90.000
ZERR   12.000   0.0016   0.0010   0.0032    0.000    0.030    0.000
LATT -1
SYMM -X, 1/2+Y, -Z
SFAC C N O
UNIT 12 12 12
L.S. 10
BOND
LIST 6
FMAP 2
PLAN 20
O001  3  0.14785  0.85171  0.25278 11.00000  0.05179   7.34
C002  1  0.20134  0.43704  0.37890 11.00000  0.03749   6.45
C003  1  0.54088  0.57645  0.22237 11.00000  0.04105   6.41
C004  1  0.30310  0.24027  0.42632 11.00000  0.03781   6.34
C005  1  0.27199  0.45478  0.55901 11.00000  0.04202   6.27
C006  1  0.16459  0.41653  0.28806 11.00000  0.02788   6.20
C007  1  0.16156  0.63486  0.51160 11.00000  0.04120   6.06
C008  1  0.13161  0.63091  0.42124 11.00000  0.03803   6.01
C009  1  0.14602  0.62045  0.23162 11.00000  0.03958   5.97
C00A  1  0.11940  0.55175  0.13894 11.00000  0.03218   5.81
C00B  1 -0.04774  0.66556  0.08623 11.00000  0.04288   5.73
C00C  1  0.34487  0.25732  0.51845 11.00000  0.04227   5.63
C00D  1  0.44401  0.50206  0.14162 11.00000  0.03624   5.43
C00E  1  0.73508  0.21638  0.21418 11.00000  0.04766   5.42
C00F  1  0.68545  0.42735  0.25833 11.00000  0.04541   5.38
C00G  1  0.63085  0.14829  0.13406 11.00000  0.05389   5.38
C00H  1  0.27310  0.64759  0.10515 11.00000  0.03707   5.24
C00I  1  0.48400  0.28324  0.09730 11.00000  0.04571   4.90
HKLF 4
END
