TITL 1_expF_0_7_expS_1_3_1_a.res in P2(1)
REM Old TITL 1 in P2
REM SHELXT solution in P2(1): R1 0.211, Rweak 0.164, Alpha 0.027
REM <I/s>   3.416 for    3 systematic absences,  Orientation as input
REM Formula found by SHELXT:  C16 N O

CELL  0.71073   8.0000   5.0200  16.0200   90.000  103.140   90.000
ZERR   12.000   0.0016   0.0010   0.0032    0.000    0.030    0.000
LATT -1
SYMM -X, 1/2+Y, -Z
SFAC C N O
UNIT 12 12 12
L.S. 10
BOND
LIST 6
FMAP 2
PLAN 20
O001  3  0.85351  0.14791  0.74695 11.00000  0.04574   7.51
N002  2  0.69701  0.76059  0.57337 11.00000  0.04111   6.59
C003  1  0.79814  0.56294  0.62126 11.00000  0.03169   6.53
C004  1  0.85427  0.38051  0.76831 11.00000  0.03455   6.39
C005  1  0.72741  0.54367  0.44094 11.00000  0.03731   6.34
C006  1  0.83539  0.58487  0.71170 11.00000  0.02355   6.33
C007  1  0.45933  0.42217  0.77776 11.00000  0.03558   6.13
C008  1  1.04838  0.33661  0.91425 11.00000  0.03735   6.02
C009  1  0.83807  0.36549  0.48825 11.00000  0.03806   5.98
C00A  1  0.86985  0.37019  0.57930 11.00000  0.03289   5.90
C00B  1  0.65507  0.74260  0.48212 11.00000  0.03829   5.73
C00C  1  0.88077  0.44864  0.86071 11.00000  0.02710   5.69
C00D  1  0.26491  0.78312  0.78592 11.00000  0.04346   5.49
C00E  1  0.55581  0.49920  0.85801 11.00000  0.03127   5.48
C00F  1  0.37059  0.85209  0.86651 11.00000  0.04814   5.42
C00G  1  0.31453  0.57206  0.74140 11.00000  0.04000   5.37
C00H  1  0.72716  0.35266  0.89505 11.00000  0.03140   5.15
C00I  1  0.51574  0.71540  0.90210 11.00000  0.04216   4.67
HKLF 4
END
