TITL 1_expF_0_5_expS_1_2_1_a.res in Pm
REM Old TITL 1 in P2
REM SHELXT solution in Pm: R1 0.262, Rweak 0.678, Alpha 0.290
REM <I/s>   0.000 for    0 systematic absences,  Orientation as input
REM Formula found by SHELXT:  C22 N7 O6 Cl3

CELL  0.71073   8.0000   5.0200  16.0200   90.000  103.140   90.000
ZERR   12.000   0.0016   0.0010   0.0032    0.000    0.030    0.000
LATT -1
SYMM X, -Y, Z
SFAC C N O CL
UNIT 12 12 12 0
L.S. 10
BOND
LIST 6
FMAP 2
PLAN 20
CL01  4  0.74091  1.50000  0.50442 10.50000  0.00172  15.97
CL02  4  0.71307  1.00000  0.14144 10.50000  0.15221  13.23
CL03  4  0.31955  0.50000  0.80524 10.50000  0.16111  11.23
N004  2  0.70426  1.00000  0.32229 10.50000  0.07029  10.45
O005  3  0.40508 -0.50000  0.49137 10.50000  0.07643   9.74
O006  3  0.59192  0.50000  0.91875 10.50000  0.11273   8.96
O007  3  0.64816  1.00000  0.04824 10.50000  0.08319   8.79
N008  2  0.75241  0.77075  0.27317 11.00000  0.10359   8.21
O009  3  0.70517  0.69590  0.19572 11.00000  0.16045   7.70
O00A  3  0.21082  0.00000  0.37931 10.50000  0.17283   7.47
N00B  2  0.77453  1.09727  0.54912 11.00000  0.09421   6.60
N00C  2  0.72012  1.00000  0.41146 10.50000  0.06696   6.52
C00D  1  0.34267  0.26457  0.95176 11.00000  0.24355   5.78
C00E  1  0.14017  0.50000  0.58547 10.50000  0.07525   5.76
C00F  1  0.19711  0.31575  0.67347 11.00000  0.15380   5.56
C00G  1  0.79558  1.26341  0.45905 11.00000  0.07137   5.19
C00H  1  0.30192  0.50000  0.70695 10.50000  0.07297   5.05
C00I  1  0.20436 -0.10630  0.50806 11.00000  0.11978   4.80
C00J  1  0.41883 -0.50000  0.39420 10.50000  0.16723   4.47
C00K  1  0.13610  0.00000  0.17778 10.50000  0.12339   4.32
C00L  1  0.16652  0.00000  0.26763 10.50000  0.21208   4.30
C00M  1  0.70521  1.00000  0.75860 10.50000  0.10396   3.93
C00N  1  0.80762  1.00000  0.91884 10.50000  0.08096   3.86
C00O  1  0.52659  0.77497  0.77981 11.00000  0.17299   3.85
N00P  2  0.80407  0.50000  0.84385 10.50000  0.14549   3.67
C00Q  1  0.86455  0.55547  0.33305 11.00000  0.17717   3.62
C00R  1  0.80312  1.00000  0.64555 10.50000  0.10709   3.17
C00S  1  0.13545  0.00000  0.59813 10.50000  0.10570   3.10
C00T  1  0.77317  1.00000  0.82829 10.50000  0.10675   3.04
HKLF 4
END
