TITL 1_expF_1_2_expS_0_7_1_a.res in P2(1)
REM Old TITL 1 in P2
REM SHELXT solution in P2(1): R1 0.214, Rweak 0.209, Alpha 0.053
REM <I/s>   3.114 for    3 systematic absences,  Orientation as input
REM Formula found by SHELXT:  C16 N O

CELL  0.71073   8.0000   5.0200  16.0200   90.000  103.140   90.000
ZERR   12.000   0.0016   0.0010   0.0032    0.000    0.030    0.000
LATT -1
SYMM -X, 1/2+Y, -Z
SFAC C N O
UNIT 12 12 12
L.S. 10
BOND
LIST 6
FMAP 2
PLAN 20
O001  3  0.14693  0.85151  0.25318 11.00000  0.03890   7.69
N002  2  0.20242  0.43905  0.37867 11.00000  0.03754   6.96
C003  1  0.30328  0.23903  0.42624 11.00000  0.02703   6.44
C004  1  0.14417  0.62042  0.23169 11.00000  0.03019   6.33
C005  1  0.16430  0.41526  0.28865 11.00000  0.01917   6.32
C006  1  0.27232  0.45567  0.55896 11.00000  0.03216   6.31
C007  1 -0.04848  0.66262  0.08604 11.00000  0.03493   6.19
C008  1  0.54113  0.57623  0.22205 11.00000  0.03125   6.06
C009  1  0.16302  0.63372  0.51114 11.00000  0.03431   6.06
C00A  1  0.34428  0.25808  0.51847 11.00000  0.03335   5.93
C00B  1  0.13072  0.63126  0.42107 11.00000  0.02963   5.74
C00C  1  0.11946  0.55188  0.13890 11.00000  0.02249   5.66
C00D  1  0.73499  0.21576  0.21403 11.00000  0.03942   5.59
C00E  1  0.68517  0.42811  0.25854 11.00000  0.03622   5.32
C00F  1  0.44429  0.50245  0.14183 11.00000  0.02665   5.27
C00G  1  0.27187  0.64678  0.10497 11.00000  0.02710   5.17
C00H  1  0.62874  0.14849  0.13325 11.00000  0.04498   5.12
C00I  1  0.48412  0.28392  0.09680 11.00000  0.03751   4.89
HKLF 4
END
