TITL 1_expF_0_9_expS_1_5_1_a.res in P2(1)
REM Old TITL 1 in P2
REM SHELXT solution in P2(1): R1 0.289, Rweak 0.042, Alpha 0.014
REM <I/s>   6.448 for    3 systematic absences,  Orientation as input
REM Formula found by SHELXT:  C15 N2 O

CELL  0.71073   8.0000   5.0200  16.0200   90.000  103.140   90.000
ZERR   12.000   0.0016   0.0010   0.0032    0.000    0.030    0.000
LATT -1
SYMM -X, 1/2+Y, -Z
SFAC C N O
UNIT 12 12 12
L.S. 10
BOND
LIST 6
FMAP 2
PLAN 20
O001  3  0.14462  0.14737  0.25204 11.00000  0.07545   6.73
N002  2  0.20308  0.56220  0.37787 11.00000  0.06525   6.63
N003  2  0.54123  0.42022  0.22149 11.00000  0.06594   6.59
C004  1  0.15585  0.36023  0.51216 11.00000  0.05770   6.28
C005  1  0.12635  0.37066  0.42169 11.00000  0.05578   6.20
C006  1  0.30301  0.75761  0.42703 11.00000  0.06091   6.17
C007  1  0.26841  0.54795  0.55927 11.00000  0.05702   6.12
C008  1  0.27183  0.35582  0.10712 11.00000  0.05460   6.02
C009  1  0.47979  0.71613  0.09824 11.00000  0.07008   6.02
C00A  1  0.14987  0.37721  0.23197 11.00000  0.05701   6.00
C00B  1  0.11654  0.44469  0.13748 11.00000  0.04811   5.99
C00C  1 -0.03810  0.32537  0.08764 11.00000  0.05927   5.92
C00D  1  0.63015  0.85263  0.13492 11.00000  0.07144   5.89
C00E  1  0.16742  0.57875  0.28701 11.00000  0.04354   5.82
C00F  1  0.73422  0.78266  0.21491 11.00000  0.06558   5.54
C00G  1  0.68424  0.57107  0.25784 11.00000  0.05822   5.42
C00H  1  0.44288  0.49553  0.14193 11.00000  0.05845   5.32
C00I  1  0.34430  0.73896  0.51760 11.00000  0.05575   5.23
HKLF 4
END
