TITL 1_expF_0_6_expS_0_8_1_a.res in Pm
REM Old TITL 1 in P2
REM SHELXT solution in Pm: R1 0.179, Rweak 0.535, Alpha 0.191
REM <I/s>   0.000 for    0 systematic absences,  Orientation as input
REM Formula found by SHELXT:  C27 N12 O19 Br2

CELL  0.71073   8.0000   5.0200  16.0200   90.000  103.140   90.000
ZERR   12.000   0.0016   0.0010   0.0032    0.000    0.030    0.000
LATT -1
SYMM X, -Y, Z
SFAC C N O BR
UNIT 12 12 12 0
L.S. 10
BOND
LIST 6
FMAP 2
PLAN 20
BR01  4  0.65628  1.00000  1.03504 10.50000  0.00836  34.70
BR02  4  0.60553  1.00000  0.93847 10.50000  0.23678  23.28
C003  1  0.96695  0.50000  0.68788 10.50000  0.05561  14.42
N004  2  0.17237  0.40496  0.05052 11.00000  0.07758  13.77
O005  3 -0.02277  0.00000  0.04273 10.50000  0.10416  12.83
O006  3  0.02559  0.32713  0.81910 11.00000  0.14736  12.81
O007  3  0.39547  0.50000  0.50643 10.50000  0.10795  11.94
O008  3  0.50869  0.15878  0.16527 11.00000  0.25893  11.57
O009  3  1.11824  0.86075  0.68535 11.00000  0.19101  10.88
N00A  2  0.19306  0.50000  0.09874 10.50000  0.04851  10.61
O00B  3  0.39188  0.50000  0.74175 10.50000  0.25464  10.52
N00C  2  0.62609  0.27764  0.28271 11.00000  0.16513  10.43
O00D  3  0.77098  0.00000  0.20848 10.50000  0.09439   9.99
O00E  3  0.88232  0.92132  0.37786 11.00000  0.26063   9.79
C00F  1  0.76212  0.50000  0.63227 10.50000  0.05419   9.66
O00G  3 -0.18377  0.50000  0.84504 10.50000  0.20872   9.42
O00H  3  0.47781  0.34673  0.04166 11.00000  0.09248   8.57
N00I  2 -0.01864  0.50000 -0.01981 10.50000  0.08802   8.36
O00J  3  0.69552  0.50000  0.37342 10.50000  0.17055   7.67
O00K  3  0.18525  0.00000  0.85540 10.50000  0.23067   7.53
N00L  2  0.71550  0.50000  0.56399 10.50000  0.09794   7.42
O00M  3  0.72612  1.00000  0.77247 10.50000  0.24744   7.25
N00N  2  0.77651  0.16347  0.17952 11.00000  0.05341   7.22
N00O  2  0.20666  0.50000  0.75833 10.50000  0.12106   7.00
N00P  2  1.07656  0.85265  0.47290 11.00000  0.21173   6.65
C00Q  1  0.58413  0.62046  0.46168 11.00000  0.08756   6.43
C00R  1  0.24814  0.50000  0.34486 10.50000  0.08717   6.39
C00S  1  1.05160  0.50000  0.49425 10.50000  0.19263   6.00
C00T  1  1.02058  1.00000  0.35415 10.50000  0.24903   5.48
C00U  1  0.05629  0.50000  0.12090 10.50000  0.13540   5.43
O00V  3  0.68790  0.50000  0.07830 10.50000  0.11538   5.30
C00W  1  0.08527  0.33236 -0.03504 11.00000  0.08057   5.26
C00X  1  0.42891  0.50000  0.17455 10.50000  0.09117   5.03
C00Y  1  0.54869  0.70175  0.69635 11.00000  0.17337   4.99
C00Z  1  0.45700  0.77125  0.57338 11.00000  0.15203   4.98
C010  1  0.64624  0.21430  0.17256 11.00000  0.07406   4.88
C011  1  1.13066  1.00000  0.61866 10.50000  0.23075   4.86
C012  1  0.81308  0.50000  0.25590 11.00000  0.18547   4.53
C013  1  0.91575  0.73634  0.56347 11.00000  0.16654   4.49
C014  1  0.84831  1.00000  0.52072 10.50000  0.16273   4.42
C015  1  0.50013  0.86672  0.82020 11.00000  0.09078   4.37
C016  1  0.36396  0.50000  0.84611 10.50000  0.16369   4.33
C017  1  1.18377  1.00000  0.42137 10.50000  0.26287   4.29
HKLF 4
END
