TITL 1_expF_1_1_expS_1_1_1_a.res in P2(1)
REM Old TITL 1 in P2
REM SHELXT solution in P2(1): R1 0.242, Rweak 0.063, Alpha 0.013
REM <I/s>   5.245 for    3 systematic absences,  Orientation as input
REM Formula found by SHELXT:  C16 N O

CELL  0.71073   8.0000   5.0200  16.0200   90.000  103.140   90.000
ZERR   12.000   0.0016   0.0010   0.0032    0.000    0.030    0.000
LATT -1
SYMM -X, 1/2+Y, -Z
SFAC C N O
UNIT 12 12 12
L.S. 10
BOND
LIST 6
FMAP 2
PLAN 20
O001  3  0.85476  0.14791  0.74769 11.00000  0.06572   7.21
N002  2  0.45627  0.42080  0.77877 11.00000  0.06182   6.67
C003  1  0.79917  0.56308  0.62127 11.00000  0.04913   6.48
C004  1  0.69620  0.75639  0.57371 11.00000  0.05318   6.29
C005  1  0.83926  0.36201  0.48807 11.00000  0.05309   6.28
C006  1  0.72993  0.54879  0.44136 11.00000  0.05314   6.11
C007  1  0.87060  0.36918  0.57905 11.00000  0.04911   6.03
C008  1  0.85152  0.37802  0.76888 11.00000  0.05207   6.00
C009  1  1.04317  0.32932  0.91337 11.00000  0.05461   5.86
C00A  1  0.88127  0.44539  0.86135 11.00000  0.04369   5.86
C00B  1  0.26519  0.78180  0.78585 11.00000  0.05835   5.85
C00C  1  0.72664  0.35035  0.89466 11.00000  0.04828   5.77
C00D  1  0.83517  0.58100  0.71233 11.00000  0.04009   5.76
C00E  1  0.37012  0.85209  0.86583 11.00000  0.06556   5.71
C00F  1  0.65606  0.74043  0.48103 11.00000  0.05081   5.67
C00G  1  0.55529  0.49742  0.85800 11.00000  0.05091   5.51
C00H  1  0.31376  0.57294  0.74151 11.00000  0.05401   5.38
C00I  1  0.52071  0.71677  0.90221 11.00000  0.05771   5.31
HKLF 4
END
