TITL 1_expF_1_4_expS_1_4_1_a.res in P2(1)
REM Old TITL 1 in P2
REM SHELXT solution in P2(1): R1 0.567, Rweak 0.085, Alpha 0.018
REM <I/s>  10.854 for    3 systematic absences,  Orientation as input
REM Formula found by SHELXT:  C17 N7 O3

CELL  0.71073   8.0000   5.0200  16.0200   90.000  103.140   90.000
ZERR   12.000   0.0016   0.0010   0.0032    0.000    0.030    0.000
LATT -1
SYMM -X, 1/2+Y, -Z
SFAC C N O
UNIT 12 12 12
L.S. 10
BOND
LIST 6
FMAP 2
PLAN 20
N001  2 -0.15427  0.78946  0.48733 11.00000  0.10703   8.71
O002  3  1.07167  0.80925  0.92091 11.00000  0.11811   8.58
O003  3  0.83196  0.97733  0.74046 11.00000  0.11287   8.57
N004  2  0.88817  0.68911  0.85934 11.00000  0.09563   8.12
C005  1 -0.14440  0.79539  0.58038 11.00000  0.08891   7.52
N006  2  0.35833  0.29651  0.86340 11.00000  0.11385   7.44
N007  2  0.42465  0.73741  0.77747 11.00000  0.11922   7.18
N008  2  0.26914  0.36237  0.78683 11.00000  0.11196   7.13
N009  2 -0.31502  0.39131  0.57499 11.00000  0.10615   6.65
C00A  1 -0.20138  0.56445  0.61618 11.00000  0.08506   6.60
N00B  2 -0.26387  0.56794  0.44788 11.00000  0.09472   6.53
C00C  1  0.72908  0.86317  0.84905 11.00000  0.12269   6.05
C00D  1 -0.16118  0.55025  0.71009 11.00000  0.09932   6.03
C00E  1  0.51827  0.37745  0.90951 11.00000  0.11506   5.93
C00F  1 -0.29185  0.91323  0.49749 11.00000  0.13051   5.86
C00G  1  0.36013  0.56576  0.76733 11.00000  0.12086   5.71
C00H  1 -0.34799  0.32589  0.48952 11.00000  0.11538   5.48
C00I  1 -0.45489  0.27989  0.61561 11.00000  0.10339   5.02
C00J  1  0.55135  0.66406  0.86230 11.00000  0.10232   4.82
C00K  1 -0.54111  0.21453  0.53221 11.00000  0.14310   4.48
C00L  1  0.55847  1.00138  0.79991 11.00000  0.09394   3.69
C00M  1 -0.03348  0.34044  0.79250 11.00000  0.12746   3.55
C00N  1  0.25274 -0.00138  0.70908 11.00000  0.12018   3.37
O00O  3 -0.01613  0.89331  0.62477 11.00000  0.13286   3.10
C00P  1  0.20483  0.28975  0.75634 11.00000  0.14854   3.07
C00Q  1  0.02023  0.32245  0.68815 11.00000  0.13034   3.05
C00R  1  0.68468  0.19291  0.95293 11.00000  0.10088   3.05
HKLF 4
END
