TITL 1_expF_1_2_expS_0_6_1_a.res in Pm
REM Old TITL 1 in P2
REM SHELXT solution in Pm: R1 0.322, Rweak 0.548, Alpha 0.199
REM <I/s>   0.000 for    0 systematic absences,  Orientation as input
REM Formula found by SHELXT:  C27 N12 O9 Br3

CELL  0.71073   8.0000   5.0200  16.0200   90.000  103.140   90.000
ZERR   12.000   0.0016   0.0010   0.0032    0.000    0.030    0.000
LATT -1
SYMM X, -Y, Z
SFAC C N O BR
UNIT 12 12 12 0
L.S. 10
BOND
LIST 6
FMAP 2
PLAN 20
BR01  4  0.51214  0.50000  0.71848 10.50000  0.05712  26.20
BR02  4  0.45135  1.00000  0.80014 10.50000  0.06356  23.61
BR03  4  0.47138  0.50000  0.43803 10.50000  0.04208  23.36
C004  1  0.07528  0.00000  0.09949 10.50000  0.00010  19.92
N005  2  0.49133  0.50000  0.52592 10.50000  0.00010  15.39
N006  2  0.41976  0.50000  0.35051 10.50000  0.00010  15.13
O007  3  0.48336  0.27326  0.55745 11.00000  0.00438  14.66
O008  3 -0.07765  0.50000  0.50146 10.50000  0.03505  14.51
O009  3  0.38522  1.00000  0.25483 10.50000  0.01478  12.41
O00A  3  0.99778  1.38621  0.77314 11.00000  0.01856  11.71
O00B  3  1.16718  1.00000  0.77868 10.50000  0.00010  11.71
N00C  2  0.42691  0.50000  0.61661 10.50000  0.00010  10.77
O00D  3 -0.29409 -0.50000  0.07816 10.50000  0.04796   9.78
N00E  2  0.47213  0.74893  0.30844 11.00000  0.01771   9.35
N00F  2  0.38170  0.50000  0.28068 10.50000  0.00010   9.27
O00G  3  0.23050  0.00000  0.07380 10.50000  0.07041   6.96
N00H  2 -0.14596  0.16775  0.40062 11.00000  0.02610   6.71
N00I  2  1.12777  1.50000  0.89124 10.50000  0.03723   6.59
N00J  2  0.94035  1.00000  0.72421 10.50000  0.05095   6.59
N00K  2  0.58311  0.58992  0.79788 11.00000  0.06006   6.17
C00L  1 -0.01342  0.00000  0.18882 10.50000  0.03486   6.01
C00M  1 -0.18688 -0.12140  0.04773 11.00000  0.02268   5.45
C00N  1  0.70598  1.00000  0.73680 10.50000  0.00010   4.95
C00O  1  0.68512  0.84538  0.71142 11.00000  0.00635   4.90
C00P  1  0.44105  1.00000  0.38585 10.50000  0.02851   4.41
C00Q  1  0.96418  1.00000  0.80190 10.50000  0.00010   4.38
C00R  1  0.86533  1.39623  0.90758 11.00000  0.01372   4.27
C00S  1  1.18242  1.72290  0.92665 11.00000  0.03430   4.15
C00T  1 -0.09471  0.31609  0.27247 11.00000  0.04184   4.09
C00U  1  1.29409  1.50000  0.95227 10.50000  0.00543   3.91
C00V  1  0.19168  0.18356  0.62630 11.00000  0.01455   3.87
C00W  1  1.02895  1.85442  0.93345 11.00000  0.01234   3.78
C00X  1  0.53843  0.75400  0.75653 11.00000  0.01672   3.76
C00Y  1  1.00718  1.31918  0.85849 11.00000  0.01278   3.74
C00Z  1  0.13050  0.11778  0.51391 11.00000  0.00777   3.66
C010  1  0.60195  0.00000  0.53994 10.50000  0.00095   3.64
HKLF 4
END
