TITL 1_expF_1_3_expS_1_2_1_a.res in P2(1)
REM Old TITL 1 in P2
REM SHELXT solution in P2(1): R1 0.369, Rweak 0.028, Alpha 0.007
REM <I/s>   8.677 for    3 systematic absences,  Orientation as input
REM Formula found by SHELXT:  C15 N2 O2

CELL  0.71073   8.0000   5.0200  16.0200   90.000  103.140   90.000
ZERR   12.000   0.0016   0.0010   0.0032    0.000    0.030    0.000
LATT -1
SYMM -X, 1/2+Y, -Z
SFAC C N O
UNIT 12 12 12
L.S. 10
BOND
LIST 6
FMAP 2
PLAN 20
O001  3  0.15148  0.14578  0.25375 11.00000  0.08879   6.74
N002  2  0.54112  0.42322  0.21945 11.00000  0.08397   6.69
C003  1  0.19318  0.55132  0.37834 11.00000  0.07970   6.67
N004  2  0.16136  0.35991  0.51138 11.00000  0.07909   6.62
C005  1  0.13106  0.37588  0.42166 11.00000  0.06351   6.50
C006  1  0.27100  0.34716  0.10698 11.00000  0.07395   6.28
C007  1  0.30473  0.74565  0.42796 11.00000  0.07509   6.12
C008  1  0.47995  0.70898  0.09904 11.00000  0.07645   6.10
C009  1  0.27005  0.54214  0.55809 11.00000  0.07415   5.99
C00A  1  0.12069  0.43773  0.13844 11.00000  0.06231   5.97
C00B  1  0.14461  0.37449  0.23216 11.00000  0.06132   5.91
C00C  1  0.63387  0.85422  0.13554 11.00000  0.08582   5.89
C00D  1 -0.03846  0.31556  0.08729 11.00000  0.07717   5.76
C00E  1  0.73352  0.76709  0.21506 11.00000  0.08057   5.70
C00F  1  0.17018  0.57714  0.28520 11.00000  0.06146   5.56
C00G  1  0.68868  0.57454  0.25717 11.00000  0.07182   5.54
C00H  1  0.44813  0.49536  0.14319 11.00000  0.07143   5.34
C00I  1  0.34194  0.73593  0.51609 11.00000  0.06848   5.11
O00J  3  0.22593  0.32842  0.39510 11.00000  0.29862   3.05
HKLF 4
END
