TITL 1_expF_1_1_expS_0_9_1_a.res in P2(1)
REM Old TITL 1 in P2
REM SHELXT solution in P2(1): R1 0.212, Rweak 0.130, Alpha 0.024
REM <I/s>   3.843 for    3 systematic absences,  Orientation as input
REM Formula found by SHELXT:  C16 N O

CELL  0.71073   8.0000   5.0200  16.0200   90.000  103.140   90.000
ZERR   12.000   0.0016   0.0010   0.0032    0.000    0.030    0.000
LATT -1
SYMM -X, 1/2+Y, -Z
SFAC C N O
UNIT 12 12 12
L.S. 10
BOND
LIST 6
FMAP 2
PLAN 20
O001  3  0.14696  0.14812  0.25343 11.00000  0.05119   7.46
N002  2  0.20153  0.56186  0.37891 11.00000  0.04743   6.63
C003  1  0.54255  0.42352  0.22170 11.00000  0.04068   6.47
C004  1  0.30311  0.75938  0.42626 11.00000  0.03709   6.45
C005  1  0.16479  0.58298  0.28840 11.00000  0.02790   6.16
C006  1  0.27245  0.54552  0.55909 11.00000  0.04138   6.12
C007  1  0.16248  0.36511  0.51149 11.00000  0.04078   6.10
C008  1  0.34511  0.74210  0.51840 11.00000  0.04104   6.05
C009  1 -0.04692  0.33429  0.08640 11.00000  0.04320   5.97
C00A  1  0.14649  0.37894  0.23168 11.00000  0.03903   5.83
C00B  1  0.13153  0.36905  0.42137 11.00000  0.03798   5.83
C00C  1  0.11946  0.44759  0.13857 11.00000  0.03228   5.79
C00D  1  0.27278  0.35277  0.10514 11.00000  0.03676   5.63
C00E  1  0.73510  0.78334  0.21396 11.00000  0.04775   5.52
C00F  1  0.63099  0.85188  0.13396 11.00000  0.05375   5.43
C00G  1  0.68566  0.57188  0.25801 11.00000  0.04461   5.31
C00H  1  0.44300  0.49792  0.14154 11.00000  0.03608   5.26
C00I  1  0.48259  0.71806  0.09764 11.00000  0.04674   5.12
HKLF 4
END
