TITL 1_expF_1_3_expS_0_5_1_a.res in Pm
REM Old TITL 1 in P2
REM SHELXT solution in Pm: R1 0.272, Rweak 0.557, Alpha 0.122
REM <I/s>   0.000 for    0 systematic absences,  Orientation as input
REM Formula found by SHELXT:  C33 N17 O11 Br2

CELL  0.71073   8.0000   5.0200  16.0200   90.000  103.140   90.000
ZERR   12.000   0.0016   0.0010   0.0032    0.000    0.030    0.000
LATT -1
SYMM X, -Y, Z
SFAC C N O BR
UNIT 12 12 12 0
L.S. 10
BOND
LIST 6
FMAP 2
PLAN 20
BR01  4  0.50581  0.00000  0.20794 10.50000  0.05594  41.05
BR02  4  0.97912  0.50000  0.82319 10.50000  0.02216  30.60
N003  2  0.47912  0.00000  0.11770 10.50000  0.00176  20.03
N004  2  0.55297  0.00000  0.30105 10.50000  0.00010  17.94
O005  3  1.15455  1.50000  1.17850 10.50000  0.00787  13.01
O006  3  0.80681  0.86554  0.82935 11.00000  0.01595  12.75
O007  3 -0.15455  0.50000  0.27798 10.50000  0.02350  12.56
O008  3  1.01006  2.00000  1.00468 10.50000  0.03415  11.37
O009  3  0.85654  1.50000  0.95737 10.50000  0.00010  11.34
N00A  2  0.82784  0.67933  0.79187 11.00000  0.03106  10.94
O00B  3  0.57061  0.50000  0.73169 10.50000  0.05002  10.83
N00C  2  0.30881 -0.50000 -0.17179 10.50000  0.00010  10.72
O00D  3  0.97628  0.50000  0.54396 10.50000  0.02510   9.31
N00E  2  0.46987  0.21257  0.34607 11.00000  0.06171   9.19
N00F  2  0.76117  1.36804  1.01370 11.00000  0.06299   8.57
N00G  2  0.96579  1.50000  1.14596 10.50000  0.08531   8.42
O00H  3  0.72235  1.00000  0.97057 10.50000  0.03228   8.26
O00I  3  0.73045  0.00000  0.64587 10.50000  0.06711   7.78
O00J  3  0.61987  0.00000  0.47485 10.50000  0.03149   7.68
N00K  2  0.90443  0.50000  0.73693 10.50000  0.03225   7.63
N00L  2  0.42554  0.50000  0.28080 10.50000  0.06468   7.23
N00M  2  0.09169  0.00000  0.42416 10.50000  0.01309   6.97
N00N  2 -0.01369  0.00000  0.18195 10.50000  0.02432   6.88
N00O  2  0.36688 -0.10495  0.06625 11.00000  0.05984   6.73
C00P  1  0.91396  1.50000  1.05521 10.50000  0.00010   6.64
C00Q  1  0.09227  0.00000  0.27743 10.50000  0.00021   6.54
C00R  1  0.27314 -0.39312 -0.06870 11.00000  0.03075   6.36
N00S  2  0.81686  0.50000  0.49953 10.50000  0.03605   6.09
C00T  1  0.49428  0.38994  0.57375 11.00000  0.01777   5.91
C00U  1  1.07697  1.61707  1.12230 11.00000  0.03883   5.88
C00V  1  0.43176  0.00000 -0.17850 10.50000  0.05912   5.75
C00W  1  0.48410  0.13772  0.47205 11.00000  0.05029   5.60
C00X  1 -0.02879  0.29960  0.40502 11.00000  0.04267   5.30
C00Y  1  0.89176  0.35874  0.67311 11.00000  0.06381   5.22
C00Z  1  1.00225  0.00000  0.56680 10.50000  0.02916   5.15
C010  1  0.33811 -0.15763 -0.13405 11.00000  0.04921   5.12
C011  1  0.76050  1.00000  0.92958 10.50000  0.06914   4.95
C012  1  0.47190 -0.40014 -0.11565 11.00000  0.01949   4.76
C013  1  0.67803  0.50000  0.52159 10.50000  0.04539   4.46
C014  1  0.42541  0.00000  0.39021 10.50000  0.00010   4.38
C015  1  0.26507  0.00000  0.47619 10.50000  0.03053   4.36
C016  1  0.43460  0.50000  0.43794 10.50000  0.09866   4.34
C017  1  0.24767  0.25841  0.35785 11.00000  0.09841   4.34
C018  1  0.36238  0.00000  0.61958 10.50000  0.00010   4.31
C019  1  0.93551  1.79867  1.05596 11.00000  0.05885   4.22
C01A  1  0.05741  0.23871  0.33244 11.00000  0.06255   4.16
C01B  1  0.54355  0.00000  0.54484 10.50000  0.01961   4.11
HKLF 4
END
