TITL 1_expF_0_9_expS_1_2_1_a.res in P2(1)
REM Old TITL 1 in P2
REM SHELXT solution in P2(1): R1 0.220, Rweak 0.094, Alpha 0.019
REM <I/s>   4.347 for    3 systematic absences,  Orientation as input
REM Formula found by SHELXT:  C17 O

CELL  0.71073   8.0000   5.0200  16.0200   90.000  103.140   90.000
ZERR   12.000   0.0016   0.0010   0.0032    0.000    0.030    0.000
LATT -1
SYMM -X, 1/2+Y, -Z
SFAC C N O
UNIT 12 12 12
L.S. 10
BOND
LIST 6
FMAP 2
PLAN 20
O001  3  0.85176  0.14828  0.74712 11.00000  0.06051   7.34
C002  1  0.79818  0.56232  0.62110 11.00000  0.04224   6.50
C003  1  0.45792  0.42303  0.77821 11.00000  0.04532   6.40
C004  1  0.69496  0.75785  0.57416 11.00000  0.04477   6.39
C005  1  0.72745  0.54523  0.44125 11.00000  0.04841   6.20
C006  1  0.83855  0.36380  0.48782 11.00000  0.04723   6.17
C007  1  0.83488  0.58287  0.71153 11.00000  0.03321   6.14
C008  1  0.85153  0.37883  0.76823 11.00000  0.04472   5.99
C009  1  0.86909  0.36811  0.57895 11.00000  0.04244   5.98
C00A  1  1.04515  0.33236  0.91418 11.00000  0.04866   5.93
C00B  1  0.65512  0.74182  0.48091 11.00000  0.04742   5.80
C00C  1  0.88101  0.44743  0.86099 11.00000  0.03682   5.80
C00D  1  0.72577  0.35086  0.89445 11.00000  0.04243   5.58
C00E  1  0.26734  0.78223  0.78606 11.00000  0.05144   5.55
C00F  1  0.36717  0.85172  0.86599 11.00000  0.05768   5.50
C00G  1  0.31423  0.57090  0.74083 11.00000  0.04939   5.47
C00H  1  0.55712  0.49731  0.85820 11.00000  0.04255   5.32
C00I  1  0.51847  0.71774  0.90197 11.00000  0.05155   5.09
HKLF 4
END
