TITL 1_expF_1_3_expS_1_4_1_a.res in P2(1)
REM Old TITL 1 in P2
REM SHELXT solution in P2(1): R1 0.421, Rweak 0.012, Alpha 0.018
REM <I/s>  12.789 for    3 systematic absences,  Orientation as input
REM Formula found by SHELXT:  C10 N5 O4

CELL  0.71073   8.0000   5.0200  16.0200   90.000  103.140   90.000
ZERR   12.000   0.0016   0.0010   0.0032    0.000    0.030    0.000
LATT -1
SYMM -X, 1/2+Y, -Z
SFAC C N O
UNIT 12 12 12
L.S. 10
BOND
LIST 6
FMAP 2
PLAN 20
N001  2  0.88618  0.55530  0.86155 11.00000  0.09000   7.94
O002  3  0.84001  0.63652  0.48857 11.00000  0.10076   7.89
O003  3  0.85931  0.85717  0.74694 11.00000  0.10526   7.75
N004  2  0.79265  0.44142  0.62520 11.00000  0.09152   7.29
O005  3  1.04179  0.67286  0.91240 11.00000  0.11656   7.21
N006  2  0.44814  0.59076  0.78327 11.00000  0.10998   7.06
N007  2  0.86623  0.63623  0.57900 11.00000  0.08369   7.02
C008  1  0.30170  0.43841  0.74224 11.00000  0.11042   6.90
N009  2  0.51046  0.28962  0.90157 11.00000  0.11484   6.62
C00A  1  0.84082  0.42856  0.71492 11.00000  0.07655   5.77
C00B  1  0.72720  0.44971  0.44058 11.00000  0.08250   5.56
C00C  1  0.56578  0.51286  0.85745 11.00000  0.09794   5.47
C00D  1  0.71948  0.63404  0.88999 11.00000  0.09847   5.46
C00E  1  0.35319  0.14283  0.86226 11.00000  0.09908   5.20
C00F  1  0.66474  0.24958  0.48323 11.00000  0.09038   5.01
C00G  1  0.70396  0.24877  0.57416 11.00000  0.09830   5.00
C00H  1  0.85709  0.63202  0.76756 11.00000  0.08511   4.73
C00I  1  0.25772  0.23859  0.78349 11.00000  0.10367   4.69
O00J  3  0.26727  0.39151  0.64340 11.00000  0.20153   3.83
HKLF 4
END
