TITL 1_expF_0_8_expS_1_4_1_a.res in P2(1)
REM Old TITL 1 in P2
REM SHELXT solution in P2(1): R1 0.225, Rweak 0.090, Alpha 0.012
REM <I/s>   4.625 for    3 systematic absences,  Orientation as input
REM Formula found by SHELXT:  C15 N2 O

CELL  0.71073   8.0000   5.0200  16.0200   90.000  103.140   90.000
ZERR   12.000   0.0016   0.0010   0.0032    0.000    0.030    0.000
LATT -1
SYMM -X, 1/2+Y, -Z
SFAC C N O
UNIT 12 12 12
L.S. 10
BOND
LIST 6
FMAP 2
PLAN 20
O001  3  0.14410  0.85253  0.25332 11.00000  0.05907   7.05
N002  2  0.54332  0.57901  0.22086 11.00000  0.05328   6.55
N003  2  0.20034  0.43785  0.37867 11.00000  0.05159   6.51
C004  1  0.27175  0.45424  0.55841 11.00000  0.04931   6.28
C005  1  0.16538  0.41956  0.28818 11.00000  0.03409   6.25
C006  1  0.16148  0.63610  0.51259 11.00000  0.04835   6.16
C007  1  0.12875  0.63102  0.42059 11.00000  0.04335   6.12
C008  1  0.30456  0.24298  0.42644 11.00000  0.04716   6.10
C009  1  0.14674  0.62249  0.23097 11.00000  0.04575   6.01
C00A  1 -0.04324  0.66740  0.08632 11.00000  0.04945   5.84
C00B  1  0.11926  0.55498  0.13828 11.00000  0.03886   5.74
C00C  1  0.27336  0.64911  0.10539 11.00000  0.04228   5.63
C00D  1  0.73408  0.21882  0.21406 11.00000  0.05311   5.60
C00E  1  0.34394  0.25831  0.51894 11.00000  0.04665   5.57
C00F  1  0.68626  0.42718  0.25875 11.00000  0.05022   5.49
C00G  1  0.62897  0.14747  0.13432 11.00000  0.05868   5.30
C00H  1  0.47892  0.28249  0.09748 11.00000  0.05387   5.25
C00I  1  0.44451  0.50292  0.14221 11.00000  0.04515   5.16
HKLF 4
END
