TITL 1_expF_0_6_expS_1_5_1_a.res in P2(1)
REM Old TITL 1 in P2
REM SHELXT solution in P2(1): R1 0.211, Rweak 0.168, Alpha 0.036
REM <I/s>   3.389 for    3 systematic absences,  Orientation as input
REM Formula found by SHELXT:  C16 N O

CELL  0.71073   8.0000   5.0200  16.0200   90.000  103.140   90.000
ZERR   12.000   0.0016   0.0010   0.0032    0.000    0.030    0.000
LATT -1
SYMM -X, 1/2+Y, -Z
SFAC C N O
UNIT 12 12 12
L.S. 10
BOND
LIST 6
FMAP 2
PLAN 20
O001  3  0.14656  0.85198  0.25301 11.00000  0.04478   7.81
N002  2  0.30307  0.23924  0.42663 11.00000  0.04027   6.59
C003  1  0.16195  0.63440  0.51175 11.00000  0.03761   6.31
C004  1  0.16455  0.41507  0.28831 11.00000  0.02292   6.26
C005  1  0.14562  0.61939  0.23167 11.00000  0.03405   6.22
C006  1  0.20196  0.43705  0.37872 11.00000  0.03105   6.16
C007  1  0.27262  0.45624  0.55902 11.00000  0.03680   6.15
C008  1  0.54062  0.57770  0.22225 11.00000  0.03489   6.05
C009  1  0.13008  0.62959  0.42069 11.00000  0.03223   6.03
C00A  1  0.11922  0.55124  0.13927 11.00000  0.02643   5.77
C00B  1  0.44433  0.50068  0.14196 11.00000  0.03060   5.76
C00C  1  0.34487  0.25737  0.51783 11.00000  0.03782   5.73
C00D  1  0.73508  0.21675  0.21412 11.00000  0.04294   5.62
C00E  1 -0.04839  0.66317  0.08572 11.00000  0.03675   5.52
C00F  1  0.68537  0.42792  0.25865 11.00000  0.03937   5.36
C00G  1  0.27282  0.64714  0.10492 11.00000  0.03081   5.29
C00H  1  0.62934  0.14802  0.13343 11.00000  0.04763   5.20
C00I  1  0.48431  0.28463  0.09787 11.00000  0.04147   4.67
HKLF 4
END
