TITL 1_expF_0_5_expS_1_5_1_a.res in P2(1)
REM Old TITL 1 in P2
REM SHELXT solution in P2(1): R1 0.220, Rweak 0.266, Alpha 0.082
REM <I/s>   2.743 for    3 systematic absences,  Orientation as input
REM Formula found by SHELXT:  C15 N2 O

CELL  0.71073   8.0000   5.0200  16.0200   90.000  103.140   90.000
ZERR   12.000   0.0016   0.0010   0.0032    0.000    0.030    0.000
LATT -1
SYMM -X, 1/2+Y, -Z
SFAC C N O
UNIT 12 12 12
L.S. 10
BOND
LIST 6
FMAP 2
PLAN 20
O001  3  0.14831  0.85113  0.25233 11.00000  0.02975   7.27
N002  2  0.27193  0.46060  0.55846 11.00000  0.03415   6.94
N003  2  0.16397  0.41503  0.28841 11.00000  0.01975   6.71
C004  1  0.20251  0.43967  0.37811 11.00000  0.02051   6.67
C005  1 -0.04847  0.66193  0.08584 11.00000  0.02795   6.29
C006  1  0.13062  0.63264  0.42015 11.00000  0.02196   6.03
C007  1  0.30382  0.23943  0.42644 11.00000  0.02061   5.83
C008  1  0.34372  0.25854  0.51813 11.00000  0.02932   5.83
C009  1  0.11948  0.55167  0.13943 11.00000  0.01541   5.82
C00A  1  0.16365  0.63421  0.51176 11.00000  0.03004   5.78
C00B  1  0.53929  0.57772  0.22312 11.00000  0.02379   5.74
C00C  1  0.14287  0.61838  0.23102 11.00000  0.02356   5.70
C00D  1  0.68226  0.42721  0.25984 11.00000  0.03066   5.49
C00E  1  0.73506  0.21571  0.21473 11.00000  0.03164   5.47
C00F  1  0.62821  0.14887  0.13265 11.00000  0.03787   5.33
C00G  1  0.27213  0.64698  0.10459 11.00000  0.01982   4.89
C00H  1  0.44562  0.50412  0.14244 11.00000  0.01899   4.72
C00I  1  0.48439  0.28539  0.09537 11.00000  0.03160   4.19
HKLF 4
END
