TITL 1_expF_1_3_expS_0_8_1_a.res in P2(1)
REM Old TITL 1 in P2
REM SHELXT solution in P2(1): R1 0.216, Rweak 0.106, Alpha 0.024
REM <I/s>   4.122 for    3 systematic absences,  Orientation as input
REM Formula found by SHELXT:  C16 N O

CELL  0.71073   8.0000   5.0200  16.0200   90.000  103.140   90.000
ZERR   12.000   0.0016   0.0010   0.0032    0.000    0.030    0.000
LATT -1
SYMM -X, 1/2+Y, -Z
SFAC C N O
UNIT 12 12 12
L.S. 10
BOND
LIST 6
FMAP 2
PLAN 20
O001  3  0.14751  0.85285  0.25335 11.00000  0.05555   6.83
N002  2  0.20241  0.43836  0.37901 11.00000  0.05090   6.50
C003  1  0.54286  0.57770  0.22140 11.00000  0.04276   6.45
C004  1  0.16502  0.41788  0.28838 11.00000  0.02994   6.31
C005  1  0.14705  0.62243  0.23176 11.00000  0.04157   6.14
C006  1  0.30404  0.24249  0.42619 11.00000  0.04040   6.13
C007  1  0.27287  0.45486  0.55893 11.00000  0.04423   6.08
C008  1  0.16114  0.63604  0.51203 11.00000  0.04361   6.01
C009  1  0.13155  0.63124  0.42119 11.00000  0.04047   5.93
C00A  1 -0.04573  0.66586  0.08619 11.00000  0.04493   5.75
C00B  1  0.34495  0.25714  0.51856 11.00000  0.04333   5.72
C00C  1  0.11953  0.55272  0.13866 11.00000  0.03357   5.70
C00D  1  0.73397  0.21928  0.21428 11.00000  0.04983   5.52
C00E  1  0.27297  0.64813  0.10496 11.00000  0.03943   5.50
C00F  1  0.68588  0.42867  0.25832 11.00000  0.04755   5.31
C00G  1  0.63123  0.14715  0.13377 11.00000  0.05510   5.25
C00H  1  0.48178  0.28249  0.09781 11.00000  0.04973   5.10
C00I  1  0.44241  0.50371  0.14163 11.00000  0.03903   5.08
HKLF 4
END
