TITL 1_expF_0_7_expS_1_1_1_a.res in P2(1)
REM Old TITL 1 in P2
REM SHELXT solution in P2(1): R1 0.219, Rweak 0.251, Alpha 0.091
REM <I/s>   2.806 for    3 systematic absences,  Orientation as input
REM Formula found by SHELXT:  C15 N2 O

CELL  0.71073   8.0000   5.0200  16.0200   90.000  103.140   90.000
ZERR   12.000   0.0016   0.0010   0.0032    0.000    0.030    0.000
LATT -1
SYMM -X, 1/2+Y, -Z
SFAC C N O
UNIT 12 12 12
L.S. 10
BOND
LIST 6
FMAP 2
PLAN 20
O001  3  0.85224  0.14841  0.74804 11.00000  0.03186   6.93
N002  2  0.69657  0.76079  0.57335 11.00000  0.02901   6.69
C003  1  0.79701  0.56082  0.62206 11.00000  0.02223   6.64
N004  2  0.83595  0.58575  0.71160 11.00000  0.02108   6.50
C005  1  0.72755  0.54131  0.44102 11.00000  0.02824   6.27
C006  1  0.88086  0.44946  0.86051 11.00000  0.01647   6.24
C007  1  0.85656  0.38014  0.76895 11.00000  0.02554   6.21
C008  1  0.83753  0.36617  0.48806 11.00000  0.03053   6.02
C009  1  1.04952  0.34031  0.91448 11.00000  0.02882   5.91
C00A  1  0.65675  0.74144  0.48238 11.00000  0.03081   5.57
C00B  1  0.26539  0.78451  0.78552 11.00000  0.03404   5.52
C00C  1  0.46212  0.42028  0.77699 11.00000  0.02551   5.49
C00D  1  0.31661  0.57228  0.74010 11.00000  0.03144   5.44
C00E  1  0.87018  0.36835  0.57990 11.00000  0.02274   5.41
C00F  1  0.37312  0.85159  0.86730 11.00000  0.04031   5.16
C00G  1  0.72797  0.35309  0.89537 11.00000  0.02099   4.80
C00H  1  0.55450  0.49610  0.85767 11.00000  0.02143   4.46
C00I  1  0.51352  0.71169  0.90389 11.00000  0.03030   4.41
HKLF 4
END
