TITL 1_expF_1_4_expS_0_6_1_a.res in P2(1)
REM Old TITL 1 in P2
REM SHELXT solution in P2(1): R1 0.215, Rweak 0.201, Alpha 0.065
REM <I/s>   3.114 for    3 systematic absences,  Orientation as input
REM Formula found by SHELXT:  C16 N O

CELL  0.71073   8.0000   5.0200  16.0200   90.000  103.140   90.000
ZERR   12.000   0.0016   0.0010   0.0032    0.000    0.030    0.000
LATT -1
SYMM -X, 1/2+Y, -Z
SFAC C N O
UNIT 12 12 12
L.S. 10
BOND
LIST 6
FMAP 2
PLAN 20
O001  3  0.85155  0.85123  0.74808 11.00000  0.03806   7.19
N002  2  0.83616  0.41550  0.71189 11.00000  0.02582   6.66
C003  1  0.72797  0.45681  0.44107 11.00000  0.03255   6.49
C004  1  0.85653  0.62045  0.76888 11.00000  0.02990   6.45
C005  1  0.79785  0.43877  0.62172 11.00000  0.02767   6.14
C006  1  0.69675  0.23990  0.57364 11.00000  0.02683   6.11
C007  1  1.04883  0.66277  0.91410 11.00000  0.03394   6.02
C008  1  0.46208  0.57770  0.77684 11.00000  0.03100   5.94
C009  1  0.83823  0.63425  0.48826 11.00000  0.03369   5.85
C00A  1  0.86871  0.63273  0.57937 11.00000  0.02771   5.79
C00B  1  0.88070  0.55085  0.86074 11.00000  0.02179   5.62
C00C  1  0.26495  0.21582  0.78547 11.00000  0.03866   5.49
C00D  1  0.65641  0.25823  0.48181 11.00000  0.03423   5.46
C00E  1  0.37135  0.14877  0.86661 11.00000  0.04547   5.40
C00F  1  0.31630  0.42718  0.74061 11.00000  0.03673   5.15
C00G  1  0.55492  0.50503  0.85795 11.00000  0.02669   5.06
C00H  1  0.72752  0.64746  0.89525 11.00000  0.02672   4.87
C00I  1  0.51424  0.28649  0.90417 11.00000  0.03439   4.13
HKLF 4
END
