TITL 1_expF_1_4_expS_0_9_1_a.res in P2(1)
REM Old TITL 1 in P2
REM SHELXT solution in P2(1): R1 0.258, Rweak 0.050, Alpha 0.008
REM <I/s>   5.636 for    3 systematic absences,  Orientation as input
REM Formula found by SHELXT:  C16 N O

CELL  0.71073   8.0000   5.0200  16.0200   90.000  103.140   90.000
ZERR   12.000   0.0016   0.0010   0.0032    0.000    0.030    0.000
LATT -1
SYMM -X, 1/2+Y, -Z
SFAC C N O
UNIT 12 12 12
L.S. 10
BOND
LIST 6
FMAP 2
PLAN 20
O001  3  0.85589  0.14775  0.74816 11.00000  0.07025   7.00
N002  2  0.45846  0.42480  0.77804 11.00000  0.06196   6.79
C003  1  0.79854  0.56517  0.62144 11.00000  0.04899   6.37
C004  1  0.84106  0.36292  0.48747 11.00000  0.05577   6.34
C005  1  0.69552  0.76083  0.57298 11.00000  0.05725   6.27
C006  1  0.87098  0.37093  0.57823 11.00000  0.05230   6.19
C007  1  0.85127  0.38025  0.76861 11.00000  0.05478   6.09
C008  1  0.73010  0.55070  0.44131 11.00000  0.05661   6.06
C009  1  0.83469  0.58200  0.71305 11.00000  0.04127   5.87
C00A  1  0.72745  0.35492  0.89375 11.00000  0.05174   5.85
C00B  1  1.04295  0.32555  0.91367 11.00000  0.05495   5.83
C00C  1  0.88263  0.45032  0.86135 11.00000  0.04465   5.79
C00D  1  0.26583  0.78660  0.78493 11.00000  0.06032   5.68
C00E  1  0.65658  0.74013  0.48112 11.00000  0.05397   5.64
C00F  1  0.36797  0.85225  0.86521 11.00000  0.06787   5.62
C00G  1  0.55613  0.49946  0.85787 11.00000  0.05364   5.43
C00H  1  0.31433  0.57353  0.74097 11.00000  0.05402   5.41
C00I  1  0.52225  0.71943  0.90209 11.00000  0.06114   5.40
HKLF 4
END
