TITL 1_expF_0_9_expS_1_1_1_a.res in P2(1)
REM Old TITL 1 in P2
REM SHELXT solution in P2(1): R1 0.212, Rweak 0.130, Alpha 0.011
REM <I/s>   3.845 for    3 systematic absences,  Orientation as input
REM Formula found by SHELXT:  C16 N O

CELL  0.71073   8.0000   5.0200  16.0200   90.000  103.140   90.000
ZERR   12.000   0.0016   0.0010   0.0032    0.000    0.030    0.000
LATT -1
SYMM -X, 1/2+Y, -Z
SFAC C N O
UNIT 12 12 12
L.S. 10
BOND
LIST 6
FMAP 2
PLAN 20
O001  3  0.85302  0.85188  0.74657 11.00000  0.05122   6.86
N002  2  0.79850  0.43816  0.62109 11.00000  0.04748   6.57
C003  1  0.83523  0.41699  0.71158 11.00000  0.02795   6.40
C004  1  0.45745  0.57649  0.77830 11.00000  0.04065   6.38
C005  1  0.72754  0.45448  0.44090 11.00000  0.04134   6.28
C006  1  0.69691  0.24066  0.57373 11.00000  0.03711   6.17
C007  1  0.85355  0.62103  0.76830 11.00000  0.03898   6.03
C008  1  0.83748  0.63490  0.48852 11.00000  0.04078   5.99
C009  1  0.86845  0.63098  0.57863 11.00000  0.03794   5.87
C00A  1  1.04693  0.66573  0.91357 11.00000  0.04322   5.79
C00B  1  0.65490  0.25787  0.48160 11.00000  0.04106   5.73
C00C  1  0.88057  0.55243  0.86140 11.00000  0.03225   5.70
C00D  1  0.72725  0.64729  0.89486 11.00000  0.03680   5.45
C00E  1  0.26492  0.21674  0.78603 11.00000  0.04777   5.43
C00F  1  0.31429  0.42814  0.74199 11.00000  0.04460   5.34
C00G  1  0.36903  0.14812  0.86602 11.00000  0.05366   5.17
C00H  1  0.55701  0.50208  0.85846 11.00000  0.03605   4.97
C00I  1  0.51742  0.28198  0.90234 11.00000  0.04676   4.83
HKLF 4
END
