TITL 1_expF_0_6_expS_1_3_1_a.res in P2(1)
REM Old TITL 1 in P2
REM SHELXT solution in P2(1): R1 0.218, Rweak 0.249, Alpha 0.071
REM <I/s>   2.857 for    3 systematic absences,  Orientation as input
REM Formula found by SHELXT:  C15 N2 O

CELL  0.71073   8.0000   5.0200  16.0200   90.000  103.140   90.000
ZERR   12.000   0.0016   0.0010   0.0032    0.000    0.030    0.000
LATT -1
SYMM -X, 1/2+Y, -Z
SFAC C N O
UNIT 12 12 12
L.S. 10
BOND
LIST 6
FMAP 2
PLAN 20
O001  3  0.85247  0.85126  0.74752 11.00000  0.03228   8.11
N002  2  0.79717  0.44112  0.62189 11.00000  0.03190   6.79
N003  2  0.83599  0.41466  0.71140 11.00000  0.02172   6.63
C004  1  0.69660  0.23946  0.57365 11.00000  0.02189   6.45
C005  1  1.04853  0.66096  0.91415 11.00000  0.03085   6.30
C006  1  0.85694  0.62048  0.76894 11.00000  0.02566   6.25
C007  1  0.72757  0.45753  0.44112 11.00000  0.02759   6.20
C008  1  0.46102  0.57759  0.77728 11.00000  0.02636   6.13
C009  1  0.83668  0.63394  0.48855 11.00000  0.03079   6.12
C00A  1  0.65682  0.25841  0.48178 11.00000  0.02987   6.00
C00B  1  0.88082  0.55157  0.86097 11.00000  0.01773   5.71
C00C  1  0.86956  0.63216  0.57947 11.00000  0.02408   5.60
C00D  1  0.26479  0.21551  0.78562 11.00000  0.03479   5.46
C00E  1  0.37274  0.14874  0.86719 11.00000  0.04106   5.37
C00F  1  0.31658  0.42786  0.74054 11.00000  0.03205   5.30
C00G  1  0.72837  0.64705  0.89527 11.00000  0.02196   5.14
C00H  1  0.55511  0.50484  0.85781 11.00000  0.02208   5.04
C00I  1  0.51475  0.28617  0.90428 11.00000  0.03147   4.43
HKLF 4
END
