TITL 1_expF_0_8_expS_1_3_1_a.res in P2(1)
REM Old TITL 1 in P2
REM SHELXT solution in P2(1): R1 0.216, Rweak 0.108, Alpha 0.024
REM <I/s>   4.144 for    3 systematic absences,  Orientation as input
REM Formula found by SHELXT:  C16 N O

CELL  0.71073   8.0000   5.0200  16.0200   90.000  103.140   90.000
ZERR   12.000   0.0016   0.0010   0.0032    0.000    0.030    0.000
LATT -1
SYMM -X, 1/2+Y, -Z
SFAC C N O
UNIT 12 12 12
L.S. 10
BOND
LIST 6
FMAP 2
PLAN 20
O001  3  0.85197  0.85283  0.74671 11.00000  0.05548   7.35
N002  2  0.79784  0.43866  0.62097 11.00000  0.05072   6.50
C003  1  0.69605  0.24203  0.57385 11.00000  0.04042   6.48
C004  1  0.45698  0.57820  0.77847 11.00000  0.04286   6.34
C005  1  0.72744  0.45520  0.44097 11.00000  0.04425   6.21
C006  1  0.83506  0.41792  0.71158 11.00000  0.02990   6.19
C007  1  0.83852  0.63621  0.48812 11.00000  0.04350   6.10
C008  1  0.85336  0.62193  0.76830 11.00000  0.04150   6.01
C009  1  1.04609  0.66604  0.91376 11.00000  0.04462   5.95
C00A  1  0.86857  0.63101  0.57867 11.00000  0.04065   5.86
C00B  1  0.65493  0.25808  0.48142 11.00000  0.04340   5.86
C00C  1  0.88054  0.55349  0.86125 11.00000  0.03380   5.85
C00D  1  0.36903  0.14717  0.86625 11.00000  0.05456   5.55
C00E  1  0.26598  0.21979  0.78576 11.00000  0.04982   5.53
C00F  1  0.31421  0.42785  0.74166 11.00000  0.04743   5.50
C00G  1  0.72716  0.64814  0.89498 11.00000  0.03988   5.46
C00H  1  0.55743  0.50369  0.85835 11.00000  0.03902   5.32
C00I  1  0.51841  0.28218  0.90219 11.00000  0.04986   4.97
HKLF 4
END
