TITL 1_expF_1_2_expS_1_5_1_a.res in P2(1)
REM Old TITL 1 in P2
REM SHELXT solution in P2(1): R1 0.417, Rweak 0.024, Alpha 0.044
REM <I/s>  12.474 for    3 systematic absences,  Orientation as input
REM Formula found by SHELXT:  C15 N6 O

CELL  0.71073   8.0000   5.0200  16.0200   90.000  103.140   90.000
ZERR   12.000   0.0016   0.0010   0.0032    0.000    0.030    0.000
LATT -1
SYMM -X, 1/2+Y, -Z
SFAC C N O
UNIT 12 12 12
L.S. 10
BOND
LIST 6
FMAP 2
PLAN 20
N001  2  0.83163  0.32879  0.49005 11.00000  0.09451   7.44
N002  2  0.88185  0.41979  0.85985 11.00000  0.08630   7.34
C003  1  0.86317  0.33102  0.57386 11.00000  0.08629   7.07
N004  2  0.51805  0.66933  0.89992 11.00000  0.10083   7.02
N005  2  0.73315  0.32558  0.88942 11.00000  0.10690   6.83
N006  2  0.45255  0.39574  0.78035 11.00000  0.10770   6.78
N007  2  0.80517  0.52222  0.62334 11.00000  0.09301   6.58
C008  1  0.84438  0.10001  0.74551 11.00000  0.09384   5.93
C009  1  0.69286  0.71892  0.57430 11.00000  0.08917   5.88
C00A  1  1.04270  0.29853  0.91259 11.00000  0.08616   5.75
C00B  1  0.66937  0.70648  0.48049 11.00000  0.08803   5.67
C00C  1  0.30577  0.51681  0.73990 11.00000  0.09897   5.58
C00D  1  0.55792  0.49851  0.85513 11.00000  0.11487   5.51
C00E  1  0.27315  0.75005  0.78365 11.00000  0.09547   5.21
C00F  1  0.35245  0.81440  0.86257 11.00000  0.09889   5.04
C00G  1  0.83257  0.54530  0.71617 11.00000  0.07617   4.50
C00H  1  1.11659  0.33205  1.01024 11.00000  0.13516   4.38
C00I  1  0.97247  0.16045  0.63902 11.00000  0.12769   4.19
C00J  1  0.85895  0.33694  0.76783 11.00000  0.07993   4.17
C00K  1  0.72813  0.52765  0.44655 11.00000  0.10703   4.10
O00L  3  0.62893  0.89999  0.61999 11.00000  0.22196   3.87
C00M  1  0.08207  0.54490  0.67519 11.00000  0.15317   3.14
HKLF 4
END
