TITL 1_expF_1_5_expS_1_3_1_a.res in P2(1)
REM Old TITL 1 in P2
REM SHELXT solution in P2(1): R1 0.541, Rweak 0.028, Alpha 0.036
REM <I/s>  10.442 for    3 systematic absences,  Orientation as input
REM Formula found by SHELXT:  C19 N4 O5

CELL  0.71073   8.0000   5.0200  16.0200   90.000  103.140   90.000
ZERR   12.000   0.0016   0.0010   0.0032    0.000    0.030    0.000
LATT -1
SYMM -X, 1/2+Y, -Z
SFAC C N O
UNIT 12 12 12
L.S. 10
BOND
LIST 6
FMAP 2
PLAN 20
O001  3 -0.05503  0.69371  0.08859 11.00000  0.09539   9.19
N002  2  0.17696 -0.30405  0.51225 11.00000  0.08372   8.70
O003  3  0.14827  0.49711  0.25414 11.00000  0.09570   8.50
O004  3  0.55205  0.79038  0.22270 11.00000  0.11359   8.06
N005  2  0.12376  0.80103  0.14591 11.00000  0.08490   7.97
O006  3  0.72693  1.14167  0.21390 11.00000  0.09611   7.69
N007  2  0.64664  1.22216  0.13223 11.00000  0.10863   7.50
N008  2  0.20073 -0.06199  0.37968 11.00000  0.09631   7.08
C009  1  0.13310 -0.28141  0.42446 11.00000  0.07374   6.80
C00A  1  0.28358  0.70260  0.11252 11.00000  0.09510   6.58
C00B  1  0.47614  1.07642  0.09619 11.00000  0.09724   6.53
C00C  1  0.30867  0.11872  0.43121 11.00000  0.07441   6.12
C00D  1  0.28104 -0.06602  0.56056 11.00000  0.09554   5.88
C00E  1  0.16237 -0.06639  0.28782 11.00000  0.07873   5.85
C00F  1  0.69262  0.96026  0.25159 11.00000  0.09796   5.72
C00G  1  0.31583  0.12210  0.32784 11.00000  0.10097   5.64
C00H  1  0.30015 -0.44194  0.48209 11.00000  0.10998   5.30
C00I  1  0.33117  0.12518  0.52114 11.00000  0.08971   5.25
C00J  1  0.44639  0.83535  0.14525 11.00000  0.09458   4.89
C00K  1  0.32557  0.57753  0.18351 11.00000  0.14008   4.42
C00L  1  0.51165  0.14924  0.45586 11.00000  0.15592   4.16
O00M  3  0.06248 -0.49710  0.38584 11.00000  0.14565   4.16
C00N  1  0.06469  0.15190  0.20747 11.00000  0.12566   4.08
C00O  1  0.79084  1.49710  0.24238 11.00000  0.13022   3.90
C00P  1  0.79825  0.92667  0.32685 11.00000  0.10390   3.46
C00Q  1  0.01900  0.13539  0.32469 11.00000  0.12255   3.24
C00R  1  0.25350  0.38740  0.02271 11.00000  0.12362   3.14
C00S  1  0.07248  0.17099  0.24842 11.00000  0.11181   3.11
HKLF 4
END
