TITL 1_expF_1_3_expS_1_3_1_a.res in P2(1)
REM Old TITL 1 in P2
REM SHELXT solution in P2(1): R1 0.379, Rweak 0.020, Alpha 0.007
REM <I/s>  10.516 for    3 systematic absences,  Orientation as input
REM Formula found by SHELXT:  C15 N2 O2

CELL  0.71073   8.0000   5.0200  16.0200   90.000  103.140   90.000
ZERR   12.000   0.0016   0.0010   0.0032    0.000    0.030    0.000
LATT -1
SYMM -X, 1/2+Y, -Z
SFAC C N O
UNIT 12 12 12
L.S. 10
BOND
LIST 6
FMAP 2
PLAN 20
O001  3  0.15421  0.15768  0.25111 11.00000  0.12230   6.73
N002  2  0.14954  0.37210  0.51258 11.00000  0.11266   6.63
N003  2  0.55675  0.42367  0.22456 11.00000  0.11568   6.59
C004  1  0.12676  0.37207  0.42341 11.00000  0.09852   6.42
C005  1  0.21426  0.55574  0.38061 11.00000  0.10077   6.35
C006  1  0.48210  0.69590  0.09985 11.00000  0.11999   6.24
C007  1  0.26824  0.36602  0.10612 11.00000  0.09197   6.20
C008  1  0.62673  0.84232  0.13814 11.00000  0.11820   5.87
C009  1  0.14553  0.37543  0.23243 11.00000  0.09498   5.85
C00A  1  0.27281  0.55283  0.56045 11.00000  0.09185   5.83
C00B  1  0.29690  0.75488  0.43304 11.00000  0.09541   5.79
C00C  1  0.11724  0.44942  0.13967 11.00000  0.08557   5.70
C00D  1 -0.05270  0.32393  0.08796 11.00000  0.09538   5.64
C00E  1  0.75691  0.76667  0.22085 11.00000  0.10835   5.61
C00F  1  0.69067  0.58203  0.25507 11.00000  0.10092   5.52
C00G  1  0.43687  0.49316  0.14305 11.00000  0.09842   5.24
C00H  1  0.16138  0.57033  0.28722 11.00000  0.08762   5.14
C00I  1  0.34776  0.75716  0.52077 11.00000  0.09709   4.61
O00J  3  0.02694  0.25091  0.40427 11.00000  0.40548   3.34
HKLF 4
END
