TITL 1_expF_1_3_expS_0_9_1_a.res in P2(1)
REM Old TITL 1 in P2
REM SHELXT solution in P2(1): R1 0.233, Rweak 0.076, Alpha 0.011
REM <I/s>   4.967 for    3 systematic absences,  Orientation as input
REM Formula found by SHELXT:  C16 N O

CELL  0.71073   8.0000   5.0200  16.0200   90.000  103.140   90.000
ZERR   12.000   0.0016   0.0010   0.0032    0.000    0.030    0.000
LATT -1
SYMM -X, 1/2+Y, -Z
SFAC C N O
UNIT 12 12 12
L.S. 10
BOND
LIST 6
FMAP 2
PLAN 20
O001  3  0.14569  0.85291  0.25253 11.00000  0.06617   7.21
N002  2  0.54362  0.57677  0.22092 11.00000  0.05919   6.79
C003  1  0.15970  0.63822  0.51215 11.00000  0.05173   6.40
C004  1  0.30614  0.24464  0.42646 11.00000  0.05319   6.33
C005  1  0.20085  0.43851  0.37878 11.00000  0.04461   6.32
C006  1  0.12879  0.62965  0.42076 11.00000  0.04706   6.21
C007  1  0.27084  0.45371  0.55859 11.00000  0.05376   6.09
C008  1  0.14627  0.62192  0.23138 11.00000  0.04966   6.00
C009  1  0.16495  0.41805  0.28721 11.00000  0.03782   5.88
C00A  1 -0.04340  0.67115  0.08645 11.00000  0.05085   5.84
C00B  1  0.11865  0.55414  0.13892 11.00000  0.04065   5.81
C00C  1  0.27288  0.64939  0.10531 11.00000  0.04815   5.80
C00D  1  0.34375  0.26025  0.51910 11.00000  0.05188   5.70
C00E  1  0.73362  0.22163  0.21441 11.00000  0.05765   5.65
C00F  1  0.63069  0.14709  0.13356 11.00000  0.06292   5.53
C00G  1  0.44475  0.50205  0.14214 11.00000  0.05040   5.49
C00H  1  0.68531  0.42726  0.25918 11.00000  0.05293   5.37
C00I  1  0.47932  0.28316  0.09755 11.00000  0.05680   5.29
HKLF 4
END
