TITL 1_expF_0_8_expS_1_1_1_a.res in P2(1)
REM Old TITL 1 in P2
REM SHELXT solution in P2(1): R1 0.213, Rweak 0.181, Alpha 0.052
REM <I/s>   3.299 for    3 systematic absences,  Orientation as input
REM Formula found by SHELXT:  C16 N O

CELL  0.71073   8.0000   5.0200  16.0200   90.000  103.140   90.000
ZERR   12.000   0.0016   0.0010   0.0032    0.000    0.030    0.000
LATT -1
SYMM -X, 1/2+Y, -Z
SFAC C N O
UNIT 12 12 12
L.S. 10
BOND
LIST 6
FMAP 2
PLAN 20
O001  3  0.85160  0.85145  0.74806 11.00000  0.04139   7.50
C002  1  0.79809  0.43859  0.62164 11.00000  0.02991   6.66
N003  2  0.83605  0.41591  0.71198 11.00000  0.02836   6.53
C004  1  0.69686  0.24021  0.57368 11.00000  0.02950   6.26
C005  1  0.46172  0.57761  0.77690 11.00000  0.03354   6.25
C006  1  0.72797  0.45644  0.44098 11.00000  0.03493   6.24
C007  1  0.85586  0.62061  0.76888 11.00000  0.03226   6.16
C008  1  0.83855  0.63485  0.48826 11.00000  0.03551   5.92
C009  1  0.86856  0.63247  0.57924 11.00000  0.03006   5.81
C00A  1  0.88074  0.55095  0.86084 11.00000  0.02433   5.80
C00B  1  1.04849  0.66365  0.91404 11.00000  0.03595   5.76
C00C  1  0.55527  0.50488  0.85801 11.00000  0.02921   5.49
C00D  1  0.65609  0.25793  0.48182 11.00000  0.03615   5.48
C00E  1  0.31604  0.42733  0.74082 11.00000  0.03879   5.41
C00F  1  0.37070  0.14855  0.86647 11.00000  0.04763   5.35
C00G  1  0.26491  0.21623  0.78554 11.00000  0.04090   5.05
C00H  1  0.72731  0.64764  0.89519 11.00000  0.02932   5.04
C00I  1  0.51468  0.28571  0.90391 11.00000  0.03706   5.00
HKLF 4
END
