TITL 1_expF_1_5_expS_0_9_1_a.res in P2(1)
REM Old TITL 1 in P2
REM SHELXT solution in P2(1): R1 0.301, Rweak 0.045, Alpha 0.005
REM <I/s>   6.396 for    3 systematic absences,  Orientation as input
REM Formula found by SHELXT:  C16 N O

CELL  0.71073   8.0000   5.0200  16.0200   90.000  103.140   90.000
ZERR   12.000   0.0016   0.0010   0.0032    0.000    0.030    0.000
LATT -1
SYMM -X, 1/2+Y, -Z
SFAC C N O
UNIT 12 12 12
L.S. 10
BOND
LIST 6
FMAP 2
PLAN 20
O001  3  0.85196  0.85313  0.74771 11.00000  0.07433   6.66
N002  2  0.79922  0.44248  0.62230 11.00000  0.06502   6.56
C003  1  0.84054  0.64293  0.48847 11.00000  0.05788   6.39
C004  1  0.45801  0.57985  0.77899 11.00000  0.05830   6.33
C005  1  0.86959  0.63057  0.57889 11.00000  0.05597   6.29
C006  1  0.73106  0.45312  0.44055 11.00000  0.05835   6.29
C007  1  0.72749  0.64730  0.89320 11.00000  0.05459   6.10
C008  1  0.69504  0.24516  0.57384 11.00000  0.05917   6.02
C009  1  0.52393  0.28049  0.90239 11.00000  0.06503   5.99
C00A  1  0.88379  0.55581  0.86161 11.00000  0.04688   5.96
C00B  1  0.36625  0.14687  0.86621 11.00000  0.06738   5.89
C00C  1  0.83245  0.42149  0.71277 11.00000  0.04383   5.86
C00D  1  0.84965  0.62414  0.76767 11.00000  0.05385   5.82
C00E  1  1.03959  0.67696  0.91187 11.00000  0.05926   5.72
C00F  1  0.55840  0.50565  0.85755 11.00000  0.05561   5.25
C00G  1  0.26784  0.22001  0.78504 11.00000  0.06100   5.25
C00H  1  0.65610  0.26244  0.48223 11.00000  0.05552   5.23
C00I  1  0.31531  0.43539  0.74155 11.00000  0.05548   5.17
HKLF 4
END
