TITL 1_expF_1_3_expS_1_5_1_a.res in P2(1)
REM Old TITL 1 in P2
REM SHELXT solution in P2(1): R1 0.509, Rweak 0.019, Alpha 0.040
REM <I/s>  12.170 for    3 systematic absences,  Orientation as input
REM Formula found by SHELXT:  C18 N6 O5

CELL  0.71073   8.0000   5.0200  16.0200   90.000  103.140   90.000
ZERR   12.000   0.0016   0.0010   0.0032    0.000    0.030    0.000
LATT -1
SYMM -X, 1/2+Y, -Z
SFAC C N O
UNIT 12 12 12
L.S. 10
BOND
LIST 6
FMAP 2
PLAN 20
O001  3 -0.07005  0.16920  0.08011 11.00000  0.10237   9.02
N002  2  1.17673  0.17981  0.51428 11.00000  0.08604   8.98
N003  2  0.12565  0.25061  0.14218 11.00000  0.09321   8.94
O004  3  1.14760  0.96607  0.25518 11.00000  0.09653   8.88
O005  3  0.65548  0.69358  0.13025 11.00000  0.10529   8.01
O006  3  0.55067  0.26973  0.22521 11.00000  0.09206   7.73
C007  1  1.13341  0.18401  0.42166 11.00000  0.08053   7.53
N008  2  0.73388  0.61659  0.21353 11.00000  0.08270   7.34
C009  1  1.19322  0.38723  0.37731 11.00000  0.07988   7.05
N00A  2  1.16722  0.39834  0.28532 11.00000  0.08238   6.65
N00B  2  1.31689  0.57610  0.42745 11.00000  0.08637   6.60
N00C  2  1.28300  0.40153  0.55664 11.00000  0.09877   6.59
C00D  1  0.27365  0.17395  0.10739 11.00000  0.10827   6.40
C00E  1  0.68795  0.41287  0.25792 11.00000  0.09466   6.25
C00F  1  0.47875  0.56264  0.10299 11.00000  0.10043   5.74
C00G  1  1.46758  0.65412  0.34710 11.00000  0.17590   5.46
C00H  1  0.45164  0.30855  0.13532 11.00000  0.08573   5.34
C00I  1  1.33479  0.59686  0.51987 11.00000  0.08670   5.10
C00J  1  1.30354  0.18179  0.46311 11.00000  0.14570   4.78
C00K  1  1.41316  0.05396  0.52800 11.00000  0.10362   4.50
C00L  1  0.36355  0.09020  0.19541 11.00000  0.13530   4.14
C00M  1  0.67683  0.90508  0.26027 11.00000  0.16667   3.94
C00N  1  1.09095  0.61823  0.23003 11.00000  0.11425   3.85
C00O  1  0.92769  0.61431  0.12222 11.00000  0.10987   3.49
C00P  1  1.00245  0.63512  0.27487 11.00000  0.10053   3.48
C00Q  1  0.34975  0.71400  0.03808 11.00000  0.13145   3.43
O00R  3  0.98077  0.03393  0.34747 11.00000  0.14498   3.20
C00S  1  1.03116  0.62302  0.31063 11.00000  0.10052   3.15
C00T  1  0.81206  0.33346  0.32592 11.00000  0.10320   3.06
HKLF 4
END
