TITL 1_expF_1_5_expS_1_1_1_a.res in P2(1)
REM Old TITL 1 in P2
REM SHELXT solution in P2(1): R1 0.400, Rweak 0.035, Alpha 0.013
REM <I/s>   9.896 for    3 systematic absences,  Orientation as input
REM Formula found by SHELXT:  C15 N2 O2

CELL  0.71073   8.0000   5.0200  16.0200   90.000  103.140   90.000
ZERR   12.000   0.0016   0.0010   0.0032    0.000    0.030    0.000
LATT -1
SYMM -X, 1/2+Y, -Z
SFAC C N O
UNIT 12 12 12
L.S. 10
BOND
LIST 6
FMAP 2
PLAN 20
O001  3  0.12511  0.84111  0.24781 11.00000  0.16415   6.67
N002  2  0.20445  0.44560  0.37571 11.00000  0.12013   6.59
N003  2  0.14965  0.64501  0.51023 11.00000  0.12414   6.55
C004  1  0.47189  0.29814  0.09737 11.00000  0.10434   6.45
C005  1  0.55590  0.58036  0.21916 11.00000  0.13499   6.42
C006  1  0.14951  0.64457  0.42333 11.00000  0.08905   6.42
C007  1  0.26834  0.64563  0.10423 11.00000  0.11415   6.22
C008  1  0.64285  0.15889  0.13571 11.00000  0.09445   5.96
C009  1  0.26027  0.46978  0.56368 11.00000  0.09725   5.95
C00A  1  0.15296  0.62994  0.23032 11.00000  0.10558   5.89
C00B  1  0.12229  0.55689  0.13845 11.00000  0.09696   5.86
C00C  1  0.69553  0.44488  0.25997 11.00000  0.09428   5.81
C00D  1  0.29689  0.24267  0.43164 11.00000  0.10068   5.75
C00E  1 -0.03550  0.68014  0.08551 11.00000  0.10315   5.73
C00F  1  0.16245  0.43850  0.28464 11.00000  0.08144   5.49
C00G  1  0.75623  0.25387  0.21517 11.00000  0.10043   5.43
C00H  1  0.43010  0.51731  0.14493 11.00000  0.09512   5.19
C00I  1  0.34020  0.24324  0.51457 11.00000  0.10084   4.72
O00J  3  0.02076  0.71765  0.37728 11.00000  0.31085   3.53
HKLF 4
END
