TITL 1_expF_1_2_expS_1_3_1_a.res in P2(1)
REM Old TITL 1 in P2
REM SHELXT solution in P2(1): R1 0.367, Rweak 0.030, Alpha 0.009
REM <I/s>   8.770 for    3 systematic absences,  Orientation as input
REM Formula found by SHELXT:  C15 N2 O

CELL  0.71073   8.0000   5.0200  16.0200   90.000  103.140   90.000
ZERR   12.000   0.0016   0.0010   0.0032    0.000    0.030    0.000
LATT -1
SYMM -X, 1/2+Y, -Z
SFAC C N O
UNIT 12 12 12
L.S. 10
BOND
LIST 6
FMAP 2
PLAN 20
N001  2  0.45572  0.55911  0.78015 11.00000  0.09496   6.75
O002  3  0.85111  0.85395  0.74875 11.00000  0.10431   6.70
N003  2  0.84603  0.63752  0.48830 11.00000  0.08000   6.65
C004  1  0.86572  0.62243  0.57910 11.00000  0.07033   6.39
C005  1  0.79848  0.44596  0.62147 11.00000  0.08335   6.39
C006  1  0.72733  0.64991  0.89386 11.00000  0.08602   6.09
C007  1  0.69061  0.25715  0.56975 11.00000  0.08645   5.97
C008  1  0.85588  0.62230  0.77025 11.00000  0.07523   5.94
C009  1  0.73687  0.46251  0.44096 11.00000  0.07737   5.88
C00A  1  0.52330  0.28394  0.90093 11.00000  0.08234   5.81
C00B  1  0.25821  0.23721  0.78445 11.00000  0.08908   5.76
C00C  1  0.36303  0.14605  0.86401 11.00000  0.08645   5.67
C00D  1  0.30933  0.42071  0.74360 11.00000  0.07908   5.65
C00E  1  0.88387  0.55345  0.86204 11.00000  0.07018   5.64
C00F  1  1.03947  0.68272  0.91273 11.00000  0.07765   5.59
C00G  1  0.83559  0.42268  0.71645 11.00000  0.06965   5.40
C00H  1  0.55145  0.49749  0.85768 11.00000  0.07700   5.35
C00I  1  0.66045  0.27040  0.48445 11.00000  0.07372   5.21
HKLF 4
END
