TITL 1_expF_0_7_expS_1_2_1_a.res in P2(1)
REM Old TITL 1 in P2
REM SHELXT solution in P2(1): R1 0.215, Rweak 0.201, Alpha 0.034
REM <I/s>   3.109 for    3 systematic absences,  Orientation as input
REM Formula found by SHELXT:  C16 N O

CELL  0.71073   8.0000   5.0200  16.0200   90.000  103.140   90.000
ZERR   12.000   0.0016   0.0010   0.0032    0.000    0.030    0.000
LATT -1
SYMM -X, 1/2+Y, -Z
SFAC C N O
UNIT 12 12 12
L.S. 10
BOND
LIST 6
FMAP 2
PLAN 20
O001  3  0.14835  0.85132  0.25194 11.00000  0.03810   6.75
N002  2  0.16392  0.41556  0.28811 11.00000  0.02584   6.72
C003  1  0.14354  0.62054  0.23113 11.00000  0.02988   6.60
C004  1  0.20213  0.43883  0.37827 11.00000  0.02761   6.59
C005  1  0.30325  0.23985  0.42636 11.00000  0.02692   6.35
C006  1  0.53797  0.57777  0.22315 11.00000  0.03099   6.29
C007  1  0.27203  0.45703  0.55896 11.00000  0.03251   6.05
C008  1 -0.04887  0.66283  0.08593 11.00000  0.03385   6.01
C009  1  0.34357  0.25809  0.51822 11.00000  0.03427   5.99
C00A  1  0.16177  0.63446  0.51173 11.00000  0.03376   5.77
C00B  1  0.73511  0.21612  0.21451 11.00000  0.03854   5.70
C00C  1  0.11925  0.55094  0.13924 11.00000  0.02181   5.62
C00D  1  0.13121  0.63272  0.42061 11.00000  0.02777   5.51
C00E  1  0.27240  0.64761  0.10476 11.00000  0.02670   5.13
C00F  1  0.62849  0.14868  0.13337 11.00000  0.04535   5.09
C00G  1  0.68369  0.42722  0.25936 11.00000  0.03669   5.00
C00H  1  0.44504  0.50501  0.14212 11.00000  0.02674   4.78
C00I  1  0.48570  0.28636  0.09582 11.00000  0.03450   4.52
HKLF 4
END
