TITL 1_expF_1_1_expS_0_7_1_a.res in P2(1)
REM Old TITL 1 in P2
REM SHELXT solution in P2(1): R1 0.218, Rweak 0.250, Alpha 0.092
REM <I/s>   2.829 for    3 systematic absences,  Orientation as input
REM Formula found by SHELXT:  C15 N2 O

CELL  0.71073   8.0000   5.0200  16.0200   90.000  103.140   90.000
ZERR   12.000   0.0016   0.0010   0.0032    0.000    0.030    0.000
LATT -1
SYMM -X, 1/2+Y, -Z
SFAC C N O
UNIT 12 12 12
L.S. 10
BOND
LIST 6
FMAP 2
PLAN 20
O001  3  0.14827  0.85128  0.25233 11.00000  0.03158   7.78
N002  2  0.16396  0.41514  0.28837 11.00000  0.02102   6.74
N003  2  0.27197  0.46016  0.55852 11.00000  0.03555   6.73
C004  1  0.20244  0.43948  0.37817 11.00000  0.02166   6.59
C005  1  0.14329  0.61864  0.23103 11.00000  0.02483   6.49
C006  1 -0.04819  0.66252  0.08583 11.00000  0.02887   6.19
C007  1  0.53944  0.57772  0.22308 11.00000  0.02514   6.01
C008  1  0.30376  0.23950  0.42641 11.00000  0.02196   5.89
C009  1  0.16331  0.63435  0.51179 11.00000  0.03089   5.83
C00A  1  0.13079  0.63244  0.42025 11.00000  0.02322   5.67
C00B  1  0.68239  0.42739  0.25971 11.00000  0.03166   5.56
C00C  1  0.44540  0.50407  0.14236 11.00000  0.02034   5.51
C00D  1  0.62868  0.14872  0.13273 11.00000  0.03921   5.50
C00E  1  0.34386  0.25840  0.51811 11.00000  0.03016   5.49
C00F  1  0.11947  0.55156  0.13937 11.00000  0.01661   5.48
C00G  1  0.73515  0.21595  0.21465 11.00000  0.03281   5.24
C00H  1  0.48416  0.28492  0.09560 11.00000  0.03286   4.63
C00I  1  0.27235  0.64700  0.10463 11.00000  0.02130   4.58
HKLF 4
END
