TITL 1_expF_1_1_expS_1_3_1_a.res in P2(1)
REM Old TITL 1 in P2
REM SHELXT solution in P2(1): R1 0.308, Rweak 0.035, Alpha 0.008
REM <I/s>   7.235 for    3 systematic absences,  Orientation as input
REM Formula found by SHELXT:  C15 N2 O

CELL  0.71073   8.0000   5.0200  16.0200   90.000  103.140   90.000
ZERR   12.000   0.0016   0.0010   0.0032    0.000    0.030    0.000
LATT -1
SYMM -X, 1/2+Y, -Z
SFAC C N O
UNIT 12 12 12
L.S. 10
BOND
LIST 6
FMAP 2
PLAN 20
O001  3  0.14435  0.14507  0.25028 11.00000  0.08674   6.84
N002  2  0.54358  0.41738  0.22213 11.00000  0.07468   6.61
N003  2  0.15580  0.36098  0.51248 11.00000  0.07718   6.52
C004  1  0.20052  0.56877  0.37786 11.00000  0.06363   6.48
C005  1  0.13234  0.37294  0.42278 11.00000  0.06453   6.31
C006  1  0.26755  0.54933  0.55937 11.00000  0.06649   6.02
C007  1  0.27078  0.35459  0.10648 11.00000  0.06307   5.94
C008  1  0.30440  0.75665  0.42854 11.00000  0.07112   5.92
C009  1  0.15024  0.37710  0.23132 11.00000  0.06223   5.85
C00A  1  0.11806  0.44345  0.13827 11.00000  0.05410   5.74
C00B  1  0.47773  0.71243  0.09966 11.00000  0.07387   5.72
C00C  1  0.16614  0.58001  0.28520 11.00000  0.05198   5.72
C00D  1 -0.04045  0.32452  0.08800 11.00000  0.06643   5.69
C00E  1  0.68484  0.57251  0.25728 11.00000  0.06141   5.60
C00F  1  0.73716  0.77859  0.21513 11.00000  0.07952   5.56
C00G  1  0.63197  0.85493  0.13561 11.00000  0.07959   5.50
C00H  1  0.34563  0.74216  0.51779 11.00000  0.06444   5.22
C00I  1  0.44294  0.49573  0.14246 11.00000  0.06175   5.19
HKLF 4
END
