TITL 1_expF_1_5_expS_0_8_1_a.res in P2(1)
REM Old TITL 1 in P2
REM SHELXT solution in P2(1): R1 0.243, Rweak 0.066, Alpha 0.013
REM <I/s>   5.146 for    3 systematic absences,  Orientation as input
REM Formula found by SHELXT:  C16 N O

CELL  0.71073   8.0000   5.0200  16.0200   90.000  103.140   90.000
ZERR   12.000   0.0016   0.0010   0.0032    0.000    0.030    0.000
LATT -1
SYMM -X, 1/2+Y, -Z
SFAC C N O
UNIT 12 12 12
L.S. 10
BOND
LIST 6
FMAP 2
PLAN 20
O001  3  0.14801  0.85223  0.25222 11.00000  0.06771   7.04
N002  2  0.54396  0.57644  0.22193 11.00000  0.06119   6.53
C003  1  0.20259  0.43786  0.37892 11.00000  0.04819   6.46
C004  1  0.15886  0.63792  0.51232 11.00000  0.05178   6.40
C005  1  0.27087  0.45096  0.55919 11.00000  0.05444   6.35
C006  1  0.12839  0.62939  0.42137 11.00000  0.04988   6.27
C007  1  0.30551  0.24396  0.42678 11.00000  0.05276   6.10
C008  1  0.16481  0.41828  0.28723 11.00000  0.03885   5.97
C009  1  0.14740  0.62148  0.23178 11.00000  0.05324   5.90
C00A  1  0.11742  0.55317  0.13871 11.00000  0.04160   5.85
C00B  1 -0.04466  0.67216  0.08625 11.00000  0.05305   5.72
C00C  1  0.47954  0.28260  0.09822 11.00000  0.05771   5.67
C00D  1  0.27166  0.64758  0.10556 11.00000  0.04887   5.59
C00E  1  0.34557  0.26122  0.51937 11.00000  0.05203   5.52
C00F  1  0.63085  0.14777  0.13408 11.00000  0.06517   5.41
C00G  1  0.73184  0.21844  0.21438 11.00000  0.05860   5.37
C00H  1  0.68505  0.42640  0.25859 11.00000  0.05319   5.28
C00I  1  0.44345  0.50224  0.14174 11.00000  0.05165   5.22
HKLF 4
END
