TITL 1_expF_0_9_expS_1_3_1_a.res in P2(1)
REM Old TITL 1 in P2
REM SHELXT solution in P2(1): R1 0.234, Rweak 0.080, Alpha 0.014
REM <I/s>   4.966 for    3 systematic absences,  Orientation as input
REM Formula found by SHELXT:  C15 N2 O

CELL  0.71073   8.0000   5.0200  16.0200   90.000  103.140   90.000
ZERR   12.000   0.0016   0.0010   0.0032    0.000    0.030    0.000
LATT -1
SYMM -X, 1/2+Y, -Z
SFAC C N O
UNIT 12 12 12
L.S. 10
BOND
LIST 6
FMAP 2
PLAN 20
O001  3  0.85528  0.85360  0.74707 11.00000  0.06461   7.19
N002  2  0.45680  0.57842  0.77937 11.00000  0.05684   6.73
N003  2  0.79905  0.43962  0.62111 11.00000  0.05561   6.57
C004  1  0.83870  0.63774  0.48740 11.00000  0.05196   6.36
C005  1  0.69579  0.24424  0.57331 11.00000  0.05158   6.30
C006  1  0.73001  0.45417  0.44104 11.00000  0.05176   6.20
C007  1  0.86935  0.63052  0.57915 11.00000  0.04766   6.16
C008  1  0.83512  0.42018  0.71231 11.00000  0.03793   6.01
C009  1  0.85383  0.62358  0.76875 11.00000  0.04963   6.00
C00A  1  1.04449  0.67229  0.91343 11.00000  0.05119   5.88
C00B  1  0.88076  0.55608  0.86169 11.00000  0.04139   5.84
C00C  1  0.72808  0.64965  0.89447 11.00000  0.04585   5.65
C00D  1  0.26520  0.22206  0.78542 11.00000  0.05646   5.59
C00E  1  0.65477  0.26067  0.48092 11.00000  0.04919   5.59
C00F  1  0.36992  0.14640  0.86627 11.00000  0.06123   5.53
C00G  1  0.31334  0.42772  0.74133 11.00000  0.05226   5.47
C00H  1  0.52307  0.28341  0.90185 11.00000  0.05734   5.39
C00I  1  0.55605  0.50351  0.85820 11.00000  0.05022   5.37
HKLF 4
END
