TITL 1_expF_0_5_expS_0_9_1_a.res in Pm
REM Old TITL 1 in P2
REM SHELXT solution in Pm: R1 0.168, Rweak 0.534, Alpha 0.248
REM <I/s>   0.000 for    0 systematic absences,  Orientation as input
REM Formula found by SHELXT:  C44 N9 O8 Br2

CELL  0.71073   8.0000   5.0200  16.0200   90.000  103.140   90.000
ZERR   12.000   0.0016   0.0010   0.0032    0.000    0.030    0.000
LATT -1
SYMM X, -Y, Z
SFAC C N O BR
UNIT 12 12 12 0
L.S. 10
BOND
LIST 6
FMAP 2
PLAN 20
BR01  4  0.41536  1.00000  0.53628 10.50000  0.00867  43.83
BR02  4  0.45895  1.00000  0.63227 10.50000  0.25704  22.77
O003  3  0.44646  1.00000  0.79716 10.50000  0.18658  16.86
O004  3  1.08655  1.50000  0.87819 10.50000  0.09226  13.90
O005  3  0.81129  1.50000  0.88038 10.50000  0.09216  11.25
O006  3  0.05990  0.00000  0.26578 10.50000  0.25016   9.94
N007  2  0.66450  1.31930  0.81310 11.00000  0.14700   9.45
O008  3  0.55221  1.00000  0.41508 10.50000  0.21830   9.28
O009  3  0.92605  1.00000  0.90652 10.50000  0.25541   8.01
O00A  3  0.14309  1.00000  0.42388 10.50000  0.09887   8.01
N00B  2  0.88272  1.10643  0.98063 11.00000  0.17448   7.47
N00C  2  0.70666  1.00000  0.94912 10.50000  0.21376   7.42
N00D  2  0.14494  0.27459  0.01937 11.00000  0.15269   7.03
C00E  1  0.45956  0.50000  0.57381 10.50000  0.10513   6.48
C00F  1  0.52994  1.10058  0.76567 11.00000  0.11969   6.36
C00G  1  0.84073  1.00000  0.61877 10.50000  0.09979   5.61
C00H  1  0.33679  0.50000  0.03205 10.50000  0.10044   5.57
C00I  1  0.30452  0.50000  0.42392 10.50000  0.14085   5.52
C00J  1  0.12671  0.50000  0.24988 10.50000  0.11701   5.43
C00K  1  0.33731  1.00000  0.37034 10.50000  0.07882   5.25
C00L  1  0.32381  0.22060  0.24537 11.00000  0.14414   5.20
C00M  1  0.50565  1.35099  0.86650 11.00000  0.13132   4.76
C00N  1 -0.16428  0.50000  0.23111 10.50000  0.09238   4.68
C00O  1  0.48081  0.72463  0.05790 11.00000  0.17738   4.64
C00P  1  0.59726  0.66117  0.53009 11.00000  0.06442   4.51
C00Q  1  0.95030  0.50000  0.59707 10.50000  0.08030   4.51
C00R  1  0.41935  0.50000  0.42206 10.50000  0.13842   4.48
C00S  1  0.38299  0.80604  0.39841 11.00000  0.08764   4.48
N00T  2  0.46014  0.20527  0.25989 11.00000  0.19404   4.16
C00U  1  0.32881  0.50000  0.08760 10.50000  0.07213   3.96
C00V  1 -0.20107  0.16616  0.15874 11.00000  0.16593   3.96
O00W  3  0.84776  0.50000  0.38629 10.50000  0.32176   3.94
C00X  1  0.66573  0.50000  0.34718 10.50000  0.17484   3.79
C00Y  1  0.43935  0.79286  0.49150 11.00000  0.06219   3.78
C00Z  1  0.39237  0.50000  0.35977 10.50000  0.07654   3.78
C010  1  0.63914  1.06579  0.89374 11.00000  0.14842   3.75
C011  1  0.37972  0.30086  0.29443 11.00000  0.17605   3.69
C012  1  0.44102  0.50000  0.18295 11.00000  0.16308   3.69
C013  1  0.49351  1.50000  0.84728 10.50000  0.11785   3.58
C014  1  0.10303  0.37214  0.18139 11.00000  0.15044   3.56
C015  1  0.54710  0.50000  0.38558 10.50000  0.16500   3.52
C016  1  1.20107  1.50000  0.82431 10.50000  0.19962   3.49
C017  1  0.32195  0.14562  0.19497 11.00000  0.17201   3.44
C018  1  0.87794  0.58352  0.53392 11.00000  0.07666   3.35
C019  1  0.83868  1.50000  0.96252 10.50000  0.15290   3.30
HKLF 4
END
