TITL 1_expF_1_5_expS_0_5_1_a.res in P2(1)
REM Old TITL 1 in P2
REM SHELXT solution in P2(1): R1 0.223, Rweak 0.259, Alpha 0.092
REM <I/s>   2.740 for    3 systematic absences,  Orientation as input
REM Formula found by SHELXT:  C16 N O

CELL  0.71073   8.0000   5.0200  16.0200   90.000  103.140   90.000
ZERR   12.000   0.0016   0.0010   0.0032    0.000    0.030    0.000
LATT -1
SYMM -X, 1/2+Y, -Z
SFAC C N O
UNIT 12 12 12
L.S. 10
BOND
LIST 6
FMAP 2
PLAN 20
O001  3  0.14743  0.14874  0.25296 11.00000  0.03067   7.58
C002  1  0.14150  0.37975  0.23144 11.00000  0.02543   6.80
N003  2  0.20379  0.55983  0.37855 11.00000  0.03215   6.57
C004  1  0.16481  0.58537  0.28867 11.00000  0.01387   6.49
C005  1  0.27179  0.54372  0.55891 11.00000  0.02559   6.43
C006  1  0.16259  0.36765  0.51107 11.00000  0.02966   6.26
C007  1  0.30384  0.76117  0.42631 11.00000  0.02093   6.20
C008  1  0.53834  0.42354  0.22260 11.00000  0.02541   5.97
C009  1  0.34440  0.74107  0.51843 11.00000  0.02820   5.81
C00A  1  0.11893  0.44715  0.13909 11.00000  0.01696   5.69
C00B  1 -0.05038  0.33708  0.08606 11.00000  0.03028   5.65
C00C  1  0.44534  0.49570  0.14213 11.00000  0.02168   5.37
C00D  1  0.13011  0.36868  0.42071 11.00000  0.02363   5.30
C00E  1  0.68379  0.57281  0.25899 11.00000  0.03318   5.30
C00F  1  0.73422  0.78307  0.21427 11.00000  0.03525   5.14
C00G  1  0.62612  0.85126  0.13303 11.00000  0.04015   5.10
C00H  1  0.48505  0.71421  0.09567 11.00000  0.03029   4.63
C00I  1  0.27110  0.35402  0.10477 11.00000  0.02067   4.58
HKLF 4
END
