TITL 1_expF_1_2_expS_1_0_1_a.res in P2(1)
REM Old TITL 1 in P2
REM SHELXT solution in P2(1): R1 0.241, Rweak 0.067, Alpha 0.010
REM <I/s>   5.194 for    3 systematic absences,  Orientation as input
REM Formula found by SHELXT:  C16 N O

CELL  0.71073   8.0000   5.0200  16.0200   90.000  103.140   90.000
ZERR   12.000   0.0016   0.0010   0.0032    0.000    0.030    0.000
LATT -1
SYMM -X, 1/2+Y, -Z
SFAC C N O
UNIT 12 12 12
L.S. 10
BOND
LIST 6
FMAP 2
PLAN 20
O001  3  0.14788  0.14776  0.25222 11.00000  0.06755   7.34
N002  2  0.54409  0.42353  0.22187 11.00000  0.06106   6.63
C003  1  0.20255  0.56207  0.37890 11.00000  0.04812   6.42
C004  1  0.15902  0.36195  0.51234 11.00000  0.05172   6.35
C005  1  0.12840  0.37054  0.42136 11.00000  0.04982   6.34
C006  1  0.27091  0.54892  0.55920 11.00000  0.05454   6.31
C007  1  0.30528  0.75607  0.42678 11.00000  0.05281   6.22
C008  1  0.14748  0.37841  0.23178 11.00000  0.05299   6.06
C009  1  0.16474  0.58180  0.28724 11.00000  0.03880   5.96
C00A  1 -0.04462  0.32813  0.08622 11.00000  0.05293   5.95
C00B  1  0.11745  0.44677  0.13870 11.00000  0.04162   5.90
C00C  1  0.27170  0.35217  0.10552 11.00000  0.04887   5.66
C00D  1  0.73209  0.78140  0.21437 11.00000  0.05853   5.57
C00E  1  0.63098  0.85224  0.13411 11.00000  0.06499   5.56
C00F  1  0.44348  0.49777  0.14171 11.00000  0.05154   5.54
C00G  1  0.34550  0.73880  0.51938 11.00000  0.05223   5.49
C00H  1  0.68517  0.57356  0.25856 11.00000  0.05309   5.48
C00I  1  0.47989  0.71725  0.09821 11.00000  0.05763   5.31
HKLF 4
END
